 vasp.5.4.4.18Apr17-6-g9f103f2a35 (build Aug 21 2019 12:36:18) complex

 executed on IFC18.0.1.163_CrayMP date 2019.08.24  14:18:56

 INCAR:
 POTCAR:    PAW_PBE O 08Apr2002
 POTCAR:    PAW_PBE Ir 06Sep2000

 POTCAR:    PAW_PBE O 08Apr2002
   VRHFIN =O: s2p4

   TITEL  = PAW_PBE O 08Apr2002
   POMASS =   16.000; ZVAL   =    6.000    mass and valenz
   ENMAX  =  400.000; ENMIN  =  300.000 eV

 POTCAR:    PAW_PBE Ir 06Sep2000
   VRHFIN =Ir: s1d8

   TITEL  = PAW_PBE Ir 06Sep2000
   POMASS =  192.220; ZVAL   =    9.000    mass and valenz
   ENMAX  =  210.864; ENMIN  =  158.148 eV

 Optimization of the real space projectors (new method)

 maximal supplied QI-value         = 24.76
 optimisation between [QCUT,QGAM] = [ 12.38, 31.19] = [ 42.90,272.45] Ry
 Optimized for a Real-space Cutoff    0.88 Angstroem

   l    n(q)    QCUT    max X(q) W(low)/X(q) W(high)/X(q)  e(spline)
   0      8    12.378    20.381    0.23E-03    0.15E-03    0.14E-06
   0      8    12.378    15.268    0.25E-03    0.16E-03    0.15E-06
   1      8    12.378     5.964    0.24E-03    0.11E-03    0.16E-06
   1      8    12.378     5.382    0.21E-03    0.84E-04    0.13E-06
 Optimization of the real space projectors (new method)

 maximal supplied QI-value         = 14.36
 optimisation between [QCUT,QGAM] = [ 12.49, 31.31] = [ 43.72,274.50] Ry
 Optimized for a Real-space Cutoff    1.40 Angstroem

   l    n(q)    QCUT    max X(q) W(low)/X(q) W(high)/X(q)  e(spline)
   2     12    12.495   134.116    0.29E-03    0.64E-03    0.30E-04
   2     12    12.495   130.192    0.29E-03    0.64E-03    0.30E-04
   0     13    12.495    60.310    0.11E-03    0.19E-03    0.31E-04
   0     13    12.495    39.218    0.10E-03    0.18E-03    0.29E-04
   1     13    12.495    18.439    0.29E-03    0.21E-04    0.43E-04
   1     13    12.495    12.760    0.22E-03    0.16E-04    0.33E-04
  PAW_PBE O 08Apr2002                   :
  PAW_PBE Ir 06Sep2000                  :

 POSCAR:  O Ir
  positions in cartesian coordinates
 exchange correlation table for  LEXCH =        8
   RHO(1)=    0.500       N(1)  =     2000
   RHO(2)=  100.500       N(2)  =     4000

 VTST: version 3.2, (02/03/18)

 CHAIN: initializing optimizer

 OPT: Using VASP Conjugate-Gradient optimizer
 CHAIN: Read ICHAIN            0

 POSCAR:  O Ir
  positions in cartesian coordinates

 ion  position               nearest neighbor table
   1  0.500  0.316  0.465-  33 1.97  40 1.97
   2  0.500  0.684  0.465-  34 1.97  39 1.97
   3  0.684  0.000  0.715-  35 1.97  37 1.97
   4  0.316  0.000  0.715-  38 1.97  44 1.97
   5  0.000  0.316  0.285-  43 1.97  46 1.97
   6  0.000  0.684  0.285-  36 1.97  45 1.97
   7  0.316  0.500  0.535-  33 1.97  39 1.97
   8  0.684  0.500  0.535-  34 1.97  40 1.97
   9  0.703  0.750  0.625-  34 1.96  35 1.96
  10  0.797  0.750  0.125-  36 1.96  41 1.96
  11  0.750  0.703  0.375-  34 1.96  36 1.96
  12  0.750  0.797  0.875-  35 1.96  41 1.96
  13  0.797  0.250  0.125-  46 1.96  47 1.96
  14  0.703  0.250  0.625-  37 1.96  40 1.96
  15  0.250  0.797  0.875-  38 1.96  48 1.96
  16  0.250  0.703  0.375-  39 1.96  45 1.96
  17  0.000  0.816  0.965-  41 1.97  48 1.97
  18  0.000  0.184  0.965-  42 1.97  47 1.97
  19  0.184  0.500  0.215-  43 1.97  45 1.97
  20  0.816  0.500  0.215-  36 1.97  46 1.97
  21  0.500  0.816  0.785-  35 1.97  38 1.97
  22  0.500  0.184  0.785-  37 1.97  44 1.97
  23  0.816  0.000  0.035-  41 1.97  47 1.97
  24  0.184  0.000  0.035-  42 1.97  48 1.97
  25  0.203  0.250  0.125-  42 1.96  43 1.96
  26  0.297  0.250  0.625-  33 1.96  44 1.96
  27  0.250  0.203  0.875-  42 1.96  44 1.96
  28  0.250  0.297  0.375-  33 1.96  43 1.96
  29  0.297  0.750  0.625-  38 1.96  39 1.96
  30  0.203  0.750  0.125-  45 1.96  48 1.96
  31  0.750  0.297  0.375-  40 1.96  46 1.96
  32  0.750  0.203  0.875-  37 1.96  47 1.96
  33  0.341  0.341  0.500-  26 1.96  28 1.96   1 1.97   7 1.97
  34  0.659  0.659  0.500-   9 1.96  11 1.96   2 1.97   8 1.97
  35  0.659  0.841  0.750-   9 1.96  12 1.96  21 1.97   3 1.97
  36  0.841  0.659  0.250-  10 1.96  11 1.96  20 1.97   6 1.97
  37  0.659  0.159  0.750-  14 1.96  32 1.96  22 1.97   3 1.97
  38  0.341  0.841  0.750-  15 1.96  29 1.96  21 1.97   4 1.97
  39  0.341  0.659  0.500-  16 1.96  29 1.96   7 1.97   2 1.97
  40  0.659  0.341  0.500-  14 1.96  31 1.96   1 1.97   8 1.97
  41  0.841  0.841  0.000-  10 1.96  12 1.96  17 1.97  23 1.97
  42  0.159  0.159  0.000-  25 1.96  27 1.96  18 1.97  24 1.97
  43  0.159  0.341  0.250-  25 1.96  28 1.96   5 1.97  19 1.97
  44  0.341  0.159  0.750-  26 1.96  27 1.96   4 1.97  22 1.97
  45  0.159  0.659  0.250-  16 1.96  30 1.96  19 1.97   6 1.97
  46  0.841  0.341  0.250-  13 1.96  31 1.96  20 1.97   5 1.97
  47  0.841  0.159  0.000-  13 1.96  32 1.96  23 1.97  18 1.97
  48  0.159  0.841  0.000-  15 1.96  30 1.96  24 1.97  17 1.97

  LATTYP: Found a simple tetragonal cell.
 ALAT       =    11.9704000000
 C/A-ratio  =     1.0309597006

  Lattice vectors:

 A1 = (  11.9704000000,   0.0000000000,   0.0000000000)
 A2 = (   0.0000000000,  11.9704000000,   0.0000000000)
 A3 = (   0.0000000000,   0.0000000000,  12.3410000000)

Analysis of symmetry for initial positions (statically):
 Subroutine PRICEL returns:
 Original cell was already a primitive cell.

 Routine SETGRP: Setting up the symmetry group for a
 simple tetragonal supercell.

 Subroutine GETGRP returns: Found  2 space group operations
 (whereof  2 operations were pure point group operations)
 out of a pool of 16 trial point group operations.

The static configuration has the point symmetry C_2 .

Analysis of symmetry for dynamics (positions and initial velocities):
 Subroutine PRICEL returns:
 Original cell was already a primitive cell.

[...]

The dynamic configuration has the point symmetry C_2 .

Analysis of structural, dynamic, and magnetic symmetry:
 Subroutine PRICEL returns:
 Original cell was already a primitive cell.

 Routine SETGRP: Setting up the symmetry group for a
 simple tetragonal supercell.

 Subroutine GETGRP returns: Found  2 space group operations
 (whereof  2 operations were pure point group operations)
 out of a pool of 16 trial point group operations.

The magnetic configuration has the point symmetry C_2 .

 Subroutine INISYM returns: Found  2 space group operations
 (whereof  2 operations are pure point group operations),
 and found     1 'primitive' translations

 KPOINTS: KPOINTS created by Atomic Simulation Env

Automatic generation of k-mesh.
Space group operators:
 irot       det(A)        alpha          n_x          n_y          n_z        tau_x        tau_y        tau_z
    1     1.000000     0.000000     1.000000     0.000000     0.000000     0.000000     0.000000     0.000000
    2     1.000000   180.000000     0.707107     0.707107     0.000000     0.000000     0.000000     0.000000

 Subroutine IBZKPT returns following result:

 Found      1 irreducible k-points:

 Following reciprocal coordinates:
            Coordinates               Weight
  0.000000  0.000000  0.000000      1.000000

 Following cartesian coordinates:
            Coordinates               Weight
  0.000000  0.000000  0.000000      1.000000

 SYSTEM =  unknown system
 POSCAR =   O Ir

 Startparameter for this run:
   NWRITE =      2    write-flag & timer
   PREC   = high      normal or accurate (medium, high low for compatibility)
   ISTART =      0    job   : 0-new  1-cont  2-samecut
   ICHARG =      2    charge: 1-file 2-atom 10-const
   ISPIN  =      2    spin polarized calculation?
   LNONCOLLINEAR =      F non collinear calculations
   LSORBIT =      F    spin-orbit coupling
   INIWAV =      1    electr: 0-lowe 1-rand  2-diag
   LASPH  =      T    aspherical Exc in radial PAW
   METAGGA=      F    non-selfconsistent MetaGGA calc.

 Electronic Relaxation 1
   ENCUT  =  600.0 eV  44.10 Ry    6.64 a.u.  23.91 23.91 24.65*2*pi/ulx,y,z
   ENINI  =  600.0     initial cutoff
   ENAUG  =  605.4 eV  augmentation charge cutoff
   NELM   =    220;   NELMIN=  2; NELMDL= -5     # of ELM steps
   EDIFF  = 0.1E-05   stopping-criterion for ELM
   LREAL  =      T    real-space projection
   NLSPLINE    = F    spline interpolate recip. space projectors
   LCOMPAT=      F    compatible to vasp.4.4
   GGA_COMPAT  = T    GGA compatible to vasp.4.4-vasp.4.6
   LMAXPAW     = -100 max onsite density
   LMAXMIX     =    6 max onsite mixed and CHGCAR
   VOSKOWN=      0    Vosko Wilk Nusair interpolation
   ROPT   =   -0.00040  -0.00040
 Ionic relaxation
   EDIFFG = 0.5E-02   stopping-criterion for IOM
   NSW    =    150    number of steps for IOM
   NBLOCK =      1;   KBLOCK =    150    inner block; outer block
   IBRION =      2    ionic relax: 0-MD 1-quasi-New 2-CG
   NFREE  =      1    steps in history (QN), initial steepest desc. (CG)
   ISIF   =      7    stress and relaxation
   IWAVPR =     11    prediction:  0-non 1-charg 2-wave 3-comb
   ISYM   =      2    0-nonsym 1-usesym 2-fastsym
   LCORR  =      T    Harris-Foulkes like correction to forces

   POTIM  = 0.0300    time-step for ionic-motion
   TEIN   =    0.0    initial temperature
   TEBEG  =    0.0;   TEEND  =   0.0 temperature during run
   SMASS  =  -3.00    Nose mass-parameter (am)
   estimated Nose-frequenzy (Omega)   =  0.10E-29 period in steps =****** mass=  -0.327E-26a.u.
   SCALEE = 1.0000    scale energy and forces
   NPACO  =    256;   APACO  = 16.0  distance and # of slots for P.C.
   PSTRESS=    0.0 pullay stress

  Mass of Ions in am
   POMASS =  16.00192.22
  Ionic Valenz
   ZVAL   =   6.00  9.00
  Atomic Wigner-Seitz radii
  virtual crystal weights
   VCA    =   1.00  1.00
   NELECT =     336.0000    total number of electrons
   NUPDOWN=      -1.0000    fix difference up-down

 DOS related values:
   EMIN   =  10.00;   EMAX   =-10.00  energy-range for DOS
   EFERMI =   0.00
   ISMEAR =     0;   SIGMA  =   0.05  broadening in eV -4-tet -1-fermi 0-gaus

 Electronic relaxation 2 (details)
   IALGO  =     68    algorithm
   LDIAG  =      T    sub-space diagonalisation (order eigenvalues)
   LSUBROT=      F    optimize rotation matrix (better conditioning)
   TURBO    =      0    0=normal 1=particle mesh
   IRESTART =      0    0=no restart 2=restart with 2 vectors
   NREBOOT  =      0    no. of reboots
   NMIN     =      0    reboot dimension
   EREF     =   0.00    reference energy to select bands
   IMIX   =      4    mixing-type and parameters
     AMIX     =   0.20;   BMIX     =  0.00
     AMIX_MAG =   0.10;   BMIX_MAG =  0.00
     AMIN     =   0.10
     WC   =   100.;   INIMIX=   0;  MIXPRE=   1;  MAXMIX= -45

 Intra band minimization:
   WEIMIN = 0.0010     energy-eigenvalue tresh-hold
   EBREAK =  0.11E-08  absolut break condition
   DEPER  =   0.30     relativ break condition

   TIME   =   0.40     timestep for ELM

  volume/ion in A,a.u.               =      36.84       248.61
  Fermi-wavevector in a.u.,A,eV,Ry     =   0.941164  1.778542 12.051903  0.885790
  Thomas-Fermi vector in A             =   2.068648

 Write flags
   LWAVE        =      T    write WAVECAR
   LDOWNSAMPLE  =      F    k-point downsampling of WAVECAR
   LCHARG       =      T    write CHGCAR
   LVTOT        =      F    write LOCPOT, total local potential
[...]
     39      -9.3322      1.00000
     40      -9.3305      1.00000
     41      -9.3304      1.00000
     42      -9.3162      1.00000
     43      -9.3077      1.00000
     44      -9.2910      1.00000
     45      -9.2910      1.00000
     46      -9.2594      1.00000
     47      -9.2577      1.00000
     48      -9.2012      1.00000
     49      -9.2012      1.00000
     50      -9.1915      1.00000
     51      -9.1913      1.00000
     52      -9.1472      1.00000
     53      -9.1472      1.00000
     54      -9.1221      1.00000
     55      -9.1221      1.00000
     56      -9.0794      1.00000
     57      -9.0700      1.00000
     58      -9.0700      1.00000
     59      -9.0379      1.00000
     60      -9.0379      1.00000
[...]
    214       3.0355      0.00000
    215       3.0355      0.00000
    216       3.1306      0.00000
    217       3.2791      0.00000
    218       3.2791      0.00000
    219       3.4024      0.00000
    220       3.4626      0.00000
    221       3.4626      0.00000
    222       4.0159      0.00000
    223       4.0263      0.00000
    224       4.1274      0.00000
    225       4.3622      0.00000
    226       4.3623      0.00000
    227       4.5424      0.00000
    228       4.5439      0.00000

[...]

 soft charge-density along one line, spin component           2
         0         1         2         3         4         5         6         7         8         9
 total charge-density along one line

------------------------ aborting loop because EDIFF is reached ----------------------------------------

[...]

  FORCE on cell =-STRESS in cart. coord.  units (eV):
  Direction    XX          YY          ZZ          XY          YZ          ZX
  Alpha Z   578.79988   578.79988   578.79988
  Ewald    -502.08472  -502.08472 -2719.16943    -0.00000    -0.00000     0.00000
  Hartree  6743.11429  6743.11429  4691.98691     0.00002    -0.00536     0.00536
  E(xc)   -1596.34724 -1596.34724 -1598.68726    -0.00000     0.00002    -0.00002
  Local  -11195.12850-11195.12850 -6959.97388    -0.00008     0.00619    -0.00619
  n-local  -858.65759  -858.65757  -848.27322    -0.00006     0.00001    -0.00001
  augment   834.55806   834.55806   843.88006     0.00002    -0.00010     0.00011
  Kinetic  5994.85758  5994.85759  6010.88019     0.00005    -0.00043     0.00044
  Fock        0.00000     0.00000     0.00000     0.00000     0.00000     0.00000
  Total      -0.88822    -0.88822    -0.55675    -0.00005     0.00031    -0.00031
  in kB      -0.88558    -0.88558    -0.55509    -0.00005     0.00031    -0.00031

 VOLUME and BASIS-vectors are now :
  energy-cutoff  :      600.00
  volume of cell :     1606.95
      direct lattice vectors                 reciprocal lattice vectors
    11.594544941  0.000000000  0.000000000     0.086247456  0.000000000  0.000000000
     0.000000000 11.594544941  0.000000000     0.000000000  0.086247456  0.000000000
     0.000000000  0.000000000 11.953508581     0.000000000  0.000000000  0.083657446

  length of vectors
    11.594544941 11.594544941 11.953508581     0.086247456  0.086247456  0.083657446

 FORCES acting on ions
    electron-ion (+dipol)            ewald-force                    non-local-force                 convergence-correction
   -.335E-02 0.132E+03 0.163E+03   0.851E-03 -.144E+03 -.177E+03   -.257E-04 0.107E+02 0.138E+02   0.268E-02 -.941E-03 -.851E-03
   0.322E-02 -.132E+03 0.163E+03   0.851E-03 0.144E+03 -.177E+03   -.301E-03 -.107E+02 0.138E+02   -.403E-02 0.120E-02 -.139E-02
   -.132E+03 0.128E-03 0.163E+03   0.144E+03 0.521E-03 -.177E+03   -.107E+02 -.627E-04 0.138E+02   -.532E-03 -.684E-03 -.193E-02
   0.132E+03 -.200E-03 0.163E+03   -.144E+03 0.521E-03 -.177E+03   0.107E+02 -.224E-04 0.138E+02   -.109E-03 -.375E-03 -.228E-02
   -.200E-03 0.132E+03 -.163E+03   0.521E-03 -.144E+03 0.177E+03   -.224E-04 0.107E+02 -.138E+02   -.375E-03 -.109E-03 0.228E-02
   0.128E-03 -.132E+03 -.163E+03   0.521E-03 0.144E+03 0.177E+03   -.627E-04 -.107E+02 -.138E+02   -.684E-03 -.532E-03 0.193E-02
   0.132E+03 -.335E-02 -.163E+03   -.144E+03 0.851E-03 0.177E+03   0.107E+02 -.257E-04 -.138E+02   -.941E-03 0.268E-02 0.851E-03
   -.132E+03 0.322E-02 -.163E+03   0.144E+03 0.851E-03 0.177E+03   -.107E+02 -.301E-03 -.138E+02   0.120E-02 -.403E-02 0.139E-02
   -.208E+03 -.227E-02 -.565E-02   0.221E+03 -.180E-02 0.973E-03   -.145E+02 0.362E-04 0.327E-03   0.479E-03 0.427E-02 0.472E-02
   0.208E+03 0.859E-02 -.734E-02   -.221E+03 -.180E-02 -.973E-03   0.145E+02 -.443E-03 0.128E-03   -.196E-02 -.673E-02 0.857E-02
   -.227E-02 -.208E+03 0.564E-02   -.180E-02 0.221E+03 -.973E-03   0.362E-04 -.145E+02 -.327E-03   0.427E-02 0.479E-03 -.472E-02
   0.859E-02 0.208E+03 0.734E-02   -.180E-02 -.221E+03 0.973E-03   -.443E-03 0.145E+02 -.128E-03   -.673E-02 -.196E-02 -.857E-02
   0.208E+03 -.578E-02 -.526E-02   -.221E+03 0.938E-03 0.187E-03   0.145E+02 0.231E-03 -.157E-05   -.193E-02 0.476E-02 0.529E-02
   -.208E+03 0.307E-03 -.448E-03   0.221E+03 0.938E-03 -.187E-03   -.145E+02 0.194E-03 -.704E-04   0.150E-03 -.147E-02 0.657E-03
   -.578E-02 0.208E+03 0.526E-02   0.938E-03 -.221E+03 -.187E-03   0.231E-03 0.145E+02 0.157E-05   0.476E-02 -.193E-02 -.529E-02
   0.307E-03 -.208E+03 0.442E-03   0.938E-03 0.221E+03 0.187E-03   0.194E-03 -.145E+02 0.704E-04   -.147E-02 0.150E-03 -.657E-03
   -.166E-02 0.132E+03 0.163E+03   0.521E-03 -.144E+03 -.177E+03   0.147E-03 0.107E+02 0.138E+02   0.107E-02 -.257E-02 -.237E-02
   -.711E-02 -.132E+03 0.163E+03   0.521E-03 0.144E+03 -.177E+03   0.324E-03 -.107E+02 0.138E+02   0.669E-02 0.235E-02 -.147E-02
   -.132E+03 -.280E-02 0.163E+03   0.144E+03 0.851E-03 -.177E+03   -.107E+02 0.134E-04 0.138E+02   0.788E-03 0.212E-02 0.881E-03
   0.132E+03 -.324E-02 0.163E+03   -.144E+03 0.851E-03 -.177E+03   0.107E+02 0.704E-04 0.138E+02   -.593E-03 0.258E-02 0.151E-02
   -.324E-02 0.132E+03 -.163E+03   0.851E-03 -.144E+03 0.177E+03   0.704E-04 0.107E+02 -.138E+02   0.258E-02 -.593E-03 -.151E-02
   -.280E-02 -.132E+03 -.163E+03   0.851E-03 0.144E+03 0.177E+03   0.134E-04 -.107E+02 -.138E+02   0.212E-02 0.788E-03 -.881E-03
   0.132E+03 -.166E-02 -.163E+03   -.144E+03 0.521E-03 0.177E+03   0.107E+02 0.147E-03 -.138E+02   -.257E-02 0.107E-02 0.237E-02
   -.132E+03 -.711E-02 -.163E+03   0.144E+03 0.521E-03 0.177E+03   -.107E+02 0.324E-03 -.138E+02   0.235E-02 0.669E-02 0.147E-02
   -.208E+03 -.113E-02 0.546E-03   0.221E+03 0.938E-03 0.187E-03   -.145E+02 -.638E-04 -.424E-03   0.977E-03 0.636E-04 -.560E-03
   0.208E+03 0.197E-03 -.113E-02   -.221E+03 0.938E-03 -.187E-03   0.145E+02 0.184E-03 -.998E-04   -.117E-02 -.133E-02 0.139E-02
   -.113E-02 -.208E+03 -.552E-03   0.938E-03 0.221E+03 -.187E-03   -.638E-04 -.145E+02 0.424E-03   0.636E-04 0.977E-03 0.560E-03
   0.197E-03 0.208E+03 0.114E-02   0.938E-03 -.221E+03 0.187E-03   0.184E-03 0.145E+02 0.998E-04   -.133E-02 -.117E-02 -.139E-02
   0.208E+03 0.180E-02 0.633E-04   -.221E+03 -.180E-02 0.973E-03   0.145E+02 -.346E-03 -.828E-04   -.213E-03 0.210E-03 -.108E-02
   -.208E+03 0.685E-02 -.618E-02   0.221E+03 -.180E-02 -.973E-03   -.145E+02 -.403E-03 -.737E-04   0.212E-02 -.491E-02 0.748E-02
   0.181E-02 0.208E+03 -.567E-04   -.180E-02 -.221E+03 -.973E-03   -.346E-03 0.145E+02 0.828E-04   0.210E-03 -.213E-03 0.108E-02
   0.685E-02 -.208E+03 0.618E-02   -.180E-02 0.221E+03 0.973E-03   -.403E-03 -.145E+02 0.737E-04   -.491E-02 0.212E-02 -.748E-02
   0.833E+02 0.833E+02 -.706E-06   -.826E+02 -.826E+02 0.112E-13   -.788E+00 -.788E+00 0.440E-22   -.907E-03 -.907E-03 -.114E-12
   -.833E+02 -.833E+02 0.705E-06   0.826E+02 0.826E+02 0.290E-13   0.788E+00 0.788E+00 0.387E-22   0.145E-02 0.145E-02 -.769E-13
   -.833E+02 0.833E+02 0.321E-02   0.826E+02 -.826E+02 -.256E-03   0.788E+00 -.787E+00 -.358E-04   -.121E-02 0.112E-02 -.304E-02
   0.833E+02 -.833E+02 -.321E-02   -.826E+02 0.826E+02 0.256E-03   -.787E+00 0.788E+00 0.358E-04   0.112E-02 -.121E-02 0.304E-02
   -.833E+02 -.833E+02 0.561E-02   0.826E+02 0.826E+02 -.130E-02   0.788E+00 0.788E+00 -.228E-04   -.143E-03 -.354E-03 -.443E-02
   0.833E+02 0.833E+02 0.311E-02   -.826E+02 -.826E+02 0.662E-03   -.788E+00 -.788E+00 -.448E-04   0.194E-02 -.159E-03 -.379E-02
   0.833E+02 -.833E+02 0.167E-02   -.826E+02 0.826E+02 -.919E-03   -.787E+00 0.788E+00 -.647E-05   -.276E-02 0.226E-02 -.810E-03
   -.833E+02 0.833E+02 -.167E-02   0.826E+02 -.826E+02 0.919E-03   0.788E+00 -.787E+00 0.647E-05   0.226E-02 -.276E-02 0.810E-03
   0.833E+02 0.833E+02 -.706E-06   -.826E+02 -.826E+02 -.534E-14   -.788E+00 -.788E+00 -.494E-22   -.418E-02 -.418E-02 0.245E-13
   -.833E+02 -.833E+02 0.706E-06   0.826E+02 0.826E+02 0.249E-13   0.788E+00 0.788E+00 0.183E-22   0.368E-02 0.368E-02 0.106E-12
   -.833E+02 0.833E+02 -.916E-03   0.826E+02 -.826E+02 0.383E-03   0.788E+00 -.788E+00 0.453E-04   0.115E-03 -.195E-03 0.613E-03
   0.833E+02 -.833E+02 0.916E-03   -.826E+02 0.826E+02 -.383E-03   -.788E+00 0.788E+00 -.453E-04   -.195E-03 0.115E-03 -.613E-03
   -.833E+02 -.833E+02 -.561E-02   0.826E+02 0.826E+02 0.130E-02   0.788E+00 0.788E+00 0.228E-04   -.354E-03 -.143E-03 0.443E-02
   0.833E+02 0.833E+02 -.311E-02   -.826E+02 -.826E+02 -.662E-03   -.788E+00 -.788E+00 0.448E-04   -.159E-03 0.194E-02 0.379E-02
   0.833E+02 -.833E+02 0.462E-03   -.826E+02 0.826E+02 0.105E-02   -.788E+00 0.788E+00 -.727E-04   -.657E-03 0.450E-02 -.144E-02
   -.833E+02 0.833E+02 -.462E-03   0.826E+02 -.826E+02 -.105E-02   0.788E+00 -.788E+00 0.727E-04   0.450E-02 -.657E-03 0.144E-02
   -.171E-02 -.171E-02 0.229E-07   0.426E-13 0.995E-13 0.354E-12   -.656E-02 -.656E-02 0.178E-14   0.745E-02 0.745E-02 0.375E-12

 POSITION                                       TOTAL-FORCE (eV/Angst)
      5.79727      3.66179      5.56017         0.000168     -0.489876      0.385409
      5.79727      7.93287      5.56017        -0.000249      0.489113      0.385619
      7.93287      0.00000      8.54855         0.489116     -0.000080      0.385723
      3.66179      0.00000      8.54855        -0.489889     -0.000059      0.385525
      0.00000      3.66179      3.40496        -0.000059     -0.489889     -0.385525
      0.00000      7.93287      3.40496        -0.000080      0.489116     -0.385723
      3.66179      5.79727      6.39333        -0.489876      0.000168     -0.385409
      7.93287      5.79727      6.39333         0.489113     -0.000249     -0.385619
      8.14853      8.69591      7.47094        -0.884622      0.000249      0.000371
      9.24329      8.69591      1.49419         0.884528     -0.000367      0.000384
      8.69591      8.14853      4.48257         0.000249     -0.884622     -0.000371
      8.69591      9.24329     10.45932        -0.000367      0.884528     -0.000384
      9.24329      2.89864      1.49419         0.884546      0.000159      0.000220
      8.14853      2.89864      7.47094        -0.884694     -0.000018     -0.000044
      2.89864      9.24329     10.45932         0.000159      0.884546     -0.000220
      2.89864      8.14853      4.48257        -0.000018     -0.884694      0.000044
      0.00000      9.45906     11.53693         0.000103     -0.489771      0.385500
      0.00000      2.13548     11.53693         0.000446      0.489778      0.385521
      2.13548      5.79727      2.57180         0.489763      0.000194      0.385446
      9.45906      5.79727      2.57180        -0.489753      0.000279      0.385439
      5.79727      9.45906      9.38171         0.000279     -0.489753     -0.385439
      5.79727      2.13548      9.38171         0.000194      0.489763     -0.385446
      9.45906      0.00000      0.41658        -0.489771      0.000103     -0.385500
      2.13548      0.00000      0.41658         0.489778      0.000446     -0.385521
      2.35126      2.89864      1.49419        -0.884629     -0.000179     -0.000248
      3.44601      2.89864      7.47094         0.884536      0.000007     -0.000027
      2.89864      2.35126     10.45932        -0.000179     -0.884629      0.000248
      2.89864      3.44601      4.48257         0.000007      0.884536      0.000027
      3.44601      8.69591      7.47094         0.884542     -0.000115     -0.000125
      2.35126      8.69591      1.49419        -0.884555     -0.000251      0.000255
      8.69591      3.44601      4.48257        -0.000115      0.884542      0.000125
      8.69591      2.35126     10.45932        -0.000251     -0.884555     -0.000255
      3.95606      3.95606      5.97675        -0.093429     -0.093429     -0.000000
      7.63849      7.63849      5.97675         0.093298      0.093298     -0.000000
      7.63849      9.75333      8.96513         0.093632     -0.093024     -0.000125
      9.75333      7.63849      2.98838        -0.093024      0.093632      0.000125
      7.63849      1.84121      8.96513         0.093659      0.093075     -0.000139
      3.95606      9.75333      8.96513        -0.093371     -0.093299     -0.000069
      3.95606      7.63849      5.97675        -0.093017      0.093821     -0.000069
      7.63849      3.95606      5.97675         0.093821     -0.093017      0.000069
      9.75333      9.75333      0.00000        -0.093562     -0.093562     -0.000000
      1.84121      1.84121      0.00000         0.093671      0.093671     -0.000000
      1.84121      3.95606      2.98838         0.093402     -0.093354      0.000125
      3.95606      1.84121      8.96513        -0.093354      0.093402     -0.000125
      1.84121      7.63849      2.98838         0.093075      0.093659      0.000139
      9.75333      3.95606      2.98838        -0.093299     -0.093371      0.000069
      9.75333      1.84121      0.00000        -0.093518      0.093595     -0.000005
      1.84121      9.75333      0.00000         0.093595     -0.093518      0.000005
    total drift:                               -0.000814     -0.000814      0.000000

  FREE ENERGIE OF THE ION-ELECTRON SYSTEM (eV)
  free  energy   TOTEN  =      -303.55183809 eV

  energy  without entropy=     -303.52788529  energy(sigma->0) =     -303.53986169

 d Force = 0.0000000E+00[ 0.000E+00, 0.000E+00]  d Energy = 0.1106645E+00-0.111E+00
 d Force = 0.0000000E+00[ 0.000E+00, 0.000E+00]  d Ewald  =-0.2323548E+02 0.232E+02

 stress matrix after NEB project (eV)
     -0.88822     -0.00005     -0.00031
     -0.00005     -0.88822      0.00031
     -0.00031      0.00031     -0.55675
  FORCES: max atom, RMS     0.884694    0.629367
  FORCE total and by dimension    4.360380    0.884694
  Stress total and by dimension    1.373991    0.888223

 reached required accuracy - stopping structural energy minimisation
 writing wavefunctions

 total charge

[...]

 magnetization (x)

# of ion       s       p       d       tot
    1        0.001   0.028   0.000   0.029
    2        0.001   0.028   0.000   0.029
    3        0.001   0.028   0.000   0.029
    4        0.001   0.028   0.000   0.029
    5        0.001   0.028   0.000   0.029
    6        0.001   0.028   0.000   0.029
    7        0.001   0.028   0.000   0.029
    8        0.001   0.028   0.000   0.029
    9        0.001   0.005   0.000   0.006
   10        0.001   0.005   0.000   0.006
   11        0.001   0.005   0.000   0.006
   12        0.001   0.005   0.000   0.006
   13        0.001   0.005   0.000   0.006
   14        0.001   0.005   0.000   0.006
   15        0.001   0.005   0.000   0.006
   16        0.001   0.005   0.000   0.006
   17        0.001   0.028   0.000   0.029
   18        0.001   0.028   0.000   0.029
   19        0.001   0.028   0.000   0.029
   20        0.001   0.028   0.000   0.029
   21        0.001   0.028   0.000   0.029
   22        0.001   0.028   0.000   0.029
   23        0.001   0.028   0.000   0.029
   24        0.001   0.028   0.000   0.029
   25        0.001   0.005   0.000   0.006
   26        0.001   0.005   0.000   0.006
   27        0.001   0.005   0.000   0.006
   28        0.001   0.005   0.000   0.006
   29        0.001   0.005   0.000   0.006
   30        0.001   0.005   0.000   0.006
   31        0.001   0.005   0.000   0.006
   32        0.001   0.005   0.000   0.006
   33        0.002  -0.001   0.059   0.060
   34        0.002  -0.001   0.059   0.060
   35        0.002  -0.001   0.060   0.061
   36        0.002  -0.001   0.060   0.061
   37        0.002  -0.001   0.060   0.061
   38        0.002  -0.001   0.060   0.061
   39        0.002  -0.001   0.059   0.060
   40        0.002  -0.001   0.059   0.060
   41        0.002  -0.001   0.059   0.060
   42        0.002  -0.001   0.059   0.060
   43        0.002  -0.001   0.060   0.061
   44        0.002  -0.001   0.060   0.061
   45        0.002  -0.001   0.060   0.061
   46        0.002  -0.001   0.060   0.061
   47        0.002  -0.001   0.059   0.060
   48        0.002  -0.001   0.059   0.060
tot          0.062   0.511   0.955   1.528