 vasp.5.4.4.18Apr17-6-g9f103f2a35 (build Aug 21 2019 12:36:18) complex

 executed on IFC18.0.1.163_CrayMP date 2019.08.25  15:56:15

 INCAR:
 POTCAR:    PAW_PBE O 08Apr2002
 POTCAR:    PAW_PBE Ir 06Sep2000

 POTCAR:    PAW_PBE O 08Apr2002
   VRHFIN =O: s2p4

   TITEL  = PAW_PBE O 08Apr2002
   POMASS =   16.000; ZVAL   =    6.000    mass and valenz
   ENMAX  =  400.000; ENMIN  =  300.000 eV

 POTCAR:    PAW_PBE Ir 06Sep2000
   VRHFIN =Ir: s1d8

   TITEL  = PAW_PBE Ir 06Sep2000
   POMASS =  192.220; ZVAL   =    9.000    mass and valenz
   ENMAX  =  210.864; ENMIN  =  158.148 eV

 Optimization of the real space projectors (new method)

 maximal supplied QI-value         = 24.76
 optimisation between [QCUT,QGAM] = [ 12.38, 31.19] = [ 42.90,272.45] Ry
 Optimized for a Real-space Cutoff    0.88 Angstroem

   l    n(q)    QCUT    max X(q) W(low)/X(q) W(high)/X(q)  e(spline)
   0      8    12.378    20.381    0.23E-03    0.15E-03    0.14E-06
   0      8    12.378    15.268    0.25E-03    0.16E-03    0.15E-06
   1      8    12.378     5.964    0.24E-03    0.11E-03    0.16E-06
   1      8    12.378     5.382    0.21E-03    0.84E-04    0.13E-06
 Optimization of the real space projectors (new method)

 maximal supplied QI-value         = 14.36
 optimisation between [QCUT,QGAM] = [ 12.49, 31.31] = [ 43.72,274.50] Ry
 Optimized for a Real-space Cutoff    1.40 Angstroem

   l    n(q)    QCUT    max X(q) W(low)/X(q) W(high)/X(q)  e(spline)
   2     12    12.495   134.116    0.29E-03    0.64E-03    0.30E-04
   2     12    12.495   130.192    0.29E-03    0.64E-03    0.30E-04
   0     13    12.495    60.310    0.11E-03    0.19E-03    0.31E-04
   0     13    12.495    39.218    0.10E-03    0.18E-03    0.29E-04
   1     13    12.495    18.439    0.29E-03    0.21E-04    0.43E-04
   1     13    12.495    12.760    0.22E-03    0.16E-04    0.33E-04
  PAW_PBE O 08Apr2002                   :
  PAW_PBE Ir 06Sep2000                  :

 POSCAR:  O Ir
  positions in cartesian coordinates
 exchange correlation table for  LEXCH =        8
   RHO(1)=    0.500       N(1)  =     2000
   RHO(2)=  100.500       N(2)  =     4000

 VTST: version 3.2, (02/03/18)

 CHAIN: initializing optimizer

 OPT: Using VASP Conjugate-Gradient optimizer
 CHAIN: Read ICHAIN            0

 POSCAR:  O Ir
  positions in cartesian coordinates

 ion  position               nearest neighbor table
   1  0.615  0.062  0.524-  33 1.99  40 2.03  34 2.06
   2  0.415  0.863  0.478-  39 1.90  34 1.94
   3  0.941  0.884  0.736-  37 1.99  35 2.03  38 2.05
   4  0.194  0.044  0.772-  44 1.90  38 1.93
   5  0.086  0.136  0.273-  43 1.90  46 1.94
   6  0.886  0.937  0.226-  45 1.99  36 2.02  46 2.06
   7  0.059  0.616  0.513-  33 1.99  39 2.03  34 2.05
   8  0.805  0.456  0.478-  40 1.90  34 1.93
   9  0.726  0.734  0.629-  35 1.84  34 1.90
  10  0.731  0.756  0.121-  41 1.86  36 1.90
  11  0.748  0.815  0.375-  36 1.89  34 1.89
  12  0.798  0.779  0.880-  35 1.83  41 1.88
  13  0.775  0.266  0.121-  47 1.84  46 1.90
  14  0.768  0.245  0.628-  37 1.86  40 1.90
  15  0.251  0.686  0.875-  48 1.89  38 1.89
  16  0.202  0.721  0.370-  39 1.83  45 1.88
  17  0.114  0.563  0.024-  41 1.99  48 2.02  42 2.06
  18  0.914  0.364  0.977-  47 1.90  42 1.94
  19  0.442  0.383  0.236-  45 1.99  43 2.03  46 2.05
  20  0.695  0.543  0.272-  36 1.90  46 1.93
  21  0.585  0.637  0.772-  35 1.90  38 1.94
  22  0.385  0.438  0.726-  37 1.99  44 2.03  38 2.06
  23  0.558  0.117  0.014-  41 1.99  47 2.03  42 2.05
  24  0.305  0.957  0.978-  48 1.90  42 1.93
  25  0.225  0.234  0.129-  43 1.84  42 1.90
  26  0.231  0.255  0.622-  33 1.86  44 1.90
  27  0.248  0.315  0.875-  44 1.89  42 1.89
  28  0.299  0.279  0.380-  43 1.83  33 1.88
  29  0.274  0.766  0.621-  39 1.84  38 1.90
  30  0.269  0.744  0.129-  45 1.86  48 1.90
  31  0.752  0.185  0.375-  40 1.89  46 1.89
  32  0.701  0.222  0.870-  47 1.83  37 1.88
  33  0.308  0.313  0.509-  26 1.86  28 1.88   7 1.99   1 1.99  40 2.68  39 2.92
  34  0.727  0.746  0.498-  11 1.89   9 1.90   8 1.93   2 1.94   7 2.05   1 2.06
  35  0.745  0.770  0.755-  12 1.83   9 1.84  21 1.90   3 2.03  37 2.92  44 3.15
  36  0.804  0.721  0.250-  11 1.89  10 1.90  20 1.90   6 2.02  45 2.68  43 3.15
  37  0.692  0.187  0.741-  14 1.86  32 1.88   3 1.99  22 1.99  44 2.68  35 2.92
  38  0.273  0.754  0.752-  15 1.89  29 1.90   4 1.93  21 1.94   3 2.05  22 2.06
  39  0.255  0.730  0.495-  16 1.83  29 1.84   2 1.90   7 2.03  33 2.92  40 3.15
  40  0.696  0.279  0.499-  31 1.89   8 1.90  14 1.90   1 2.03  33 2.68  39 3.15
  41  0.807  0.814  0.009-  10 1.86  12 1.88  23 1.99  17 1.99  48 2.68  47 2.92
  42  0.226  0.247  0.998-  27 1.89  25 1.90  24 1.93  18 1.94  23 2.05  17 2.06
  43  0.246  0.269  0.255-  28 1.83  25 1.84   5 1.90  19 2.03  45 2.92  36 3.15
  44  0.304  0.221  0.751-  27 1.89   4 1.90  26 1.90  22 2.03  37 2.68  35 3.15
  45  0.193  0.686  0.241-  30 1.86  16 1.88  19 1.99   6 1.99  36 2.68  43 2.92
  46  0.774  0.253  0.252-  31 1.89  13 1.90  20 1.93   5 1.94  19 2.05   6 2.06
  47  0.754  0.231  0.995-  32 1.83  13 1.84  18 1.90  23 2.03  41 2.92  48 3.15
  48  0.196  0.779  1.000-  15 1.89  30 1.90  24 1.90  17 2.02  41 2.68  47 3.15

  LATTYP: Found a triclinic cell.
 ALAT       =     7.2072900000
 B/A-ratio  =     1.6889305925
 C/A-ratio  =     2.8381008950
 COS(alpha) =     0.0003175259
 COS(beta)  =     0.3661130561
 COS(gamma) =     0.8571099441

  Lattice vectors:

 A1 = (  -7.2072900000,   0.0000000000,   0.0000000000)
 A2 = ( -10.4332672796,   6.2705207640,   0.0000000000)
 A3 = (  -7.4888484935, -12.4477854087, -14.4006067369)

Analysis of symmetry for initial positions (statically):
 Subroutine PRICEL returns:
 Original cell was already a primitive cell.

 Routine SETGRP: Setting up the symmetry group for a
 triclinic supercell.

 Subroutine GETGRP returns: Found  1 space group operations
 (whereof  1 operations were pure point group operations)
 out of a pool of  2 trial point group operations.

The static configuration has the point symmetry C_1 .

Analysis of symmetry for dynamics (positions and initial velocities):
 Subroutine PRICEL returns:
 Original cell was already a primitive cell.

[...]

The dynamic configuration has the point symmetry C_1 .

Analysis of structural, dynamic, and magnetic symmetry:
 Subroutine PRICEL returns:
 Original cell was already a primitive cell.

 Routine SETGRP: Setting up the symmetry group for a
 triclinic supercell.

 Subroutine GETGRP returns: Found  1 space group operations
 (whereof  1 operations were pure point group operations)
 out of a pool of  2 trial point group operations.

The magnetic configuration has the point symmetry C_1 .

 Subroutine INISYM returns: Found  1 space group operations
 (whereof  1 operations are pure point group operations),
 and found     1 'primitive' translations

 KPOINTS: KPOINTS created by Atomic Simulation Env

Automatic generation of k-mesh.
Space group operators:
 irot       det(A)        alpha          n_x          n_y          n_z        tau_x        tau_y        tau_z
    1     1.000000     0.000001     1.000000     0.000000     0.000000     0.000000     0.000000     0.000000

 Subroutine IBZKPT returns following result:

 Found      4 irreducible k-points:

 Following reciprocal coordinates:
            Coordinates               Weight
  0.000000  0.000000  0.000000      1.000000
  0.500000 -0.000000  0.000000      1.000000
  0.000000  0.500000  0.000000      1.000000
  0.500000  0.500000  0.000000      1.000000

 Following cartesian coordinates:
            Coordinates               Weight
  0.000000  0.000000  0.000000      1.000000
  0.069374 -0.044047  0.001997      1.000000
  0.000000  0.079738  0.000516      1.000000
  0.069374  0.035691  0.002514      1.000000

 SYSTEM =  unknown system
 POSCAR =   O Ir

 Startparameter for this run:
   NWRITE =      2    write-flag & timer
   PREC   = high      normal or accurate (medium, high low for compatibility)
   ISTART =      0    job   : 0-new  1-cont  2-samecut
   ICHARG =      2    charge: 1-file 2-atom 10-const
   ISPIN  =      2    spin polarized calculation?
   LNONCOLLINEAR =      F non collinear calculations
   LSORBIT =      F    spin-orbit coupling
   INIWAV =      1    electr: 0-lowe 1-rand  2-diag
   LASPH  =      T    aspherical Exc in radial PAW
   METAGGA=      F    non-selfconsistent MetaGGA calc.

 Electronic Relaxation 1
   ENCUT  =  600.0 eV  44.10 Ry    6.64 a.u.  14.39 14.83 28.78*2*pi/ulx,y,z
   ENINI  =  600.0     initial cutoff
   ENAUG  =  605.4 eV  augmentation charge cutoff
   NELM   =    220;   NELMIN=  2; NELMDL= -5     # of ELM steps
   EDIFF  = 0.1E-05   stopping-criterion for ELM
   LREAL  =      T    real-space projection
   NLSPLINE    = F    spline interpolate recip. space projectors
   LCOMPAT=      F    compatible to vasp.4.4
   GGA_COMPAT  = T    GGA compatible to vasp.4.4-vasp.4.6
   LMAXPAW     = -100 max onsite density
   LMAXMIX     =    6 max onsite mixed and CHGCAR
   VOSKOWN=      0    Vosko Wilk Nusair interpolation
   ROPT   =   -0.00040  -0.00040
 Ionic relaxation
   EDIFFG = 0.1E-02   stopping-criterion for IOM
   NSW    =    150    number of steps for IOM
   NBLOCK =      1;   KBLOCK =    150    inner block; outer block
   IBRION =      2    ionic relax: 0-MD 1-quasi-New 2-CG
   NFREE  =      1    steps in history (QN), initial steepest desc. (CG)
   ISIF   =      2    stress and relaxation
   IWAVPR =     11    prediction:  0-non 1-charg 2-wave 3-comb
   ISYM   =      2    0-nonsym 1-usesym 2-fastsym
   LCORR  =      T    Harris-Foulkes like correction to forces

   POTIM  = 0.0300    time-step for ionic-motion
   TEIN   =    0.0    initial temperature
   TEBEG  =    0.0;   TEEND  =   0.0 temperature during run
   SMASS  =  -3.00    Nose mass-parameter (am)
   estimated Nose-frequenzy (Omega)   =  0.10E-29 period in steps =****** mass=  -0.119E-26a.u.
   SCALEE = 1.0000    scale energy and forces
   NPACO  =    256;   APACO  = 16.0  distance and # of slots for P.C.
   PSTRESS=    0.0 pullay stress

  Mass of Ions in am
   POMASS =  16.00192.22
  Ionic Valenz
   ZVAL   =   6.00  9.00
  Atomic Wigner-Seitz radii
  virtual crystal weights
   VCA    =   1.00  1.00
   NELECT =     336.0000    total number of electrons
   NUPDOWN=      -1.0000    fix difference up-down

 DOS related values:
   EMIN   =  10.00;   EMAX   =-10.00  energy-range for DOS
   EFERMI =   0.00
   ISMEAR =     0;   SIGMA  =   0.05  broadening in eV -4-tet -1-fermi 0-gaus

 Electronic relaxation 2 (details)
   IALGO  =     68    algorithm
   LDIAG  =      T    sub-space diagonalisation (order eigenvalues)
   LSUBROT=      F    optimize rotation matrix (better conditioning)
   TURBO    =      0    0=normal 1=particle mesh
   IRESTART =      0    0=no restart 2=restart with 2 vectors
   NREBOOT  =      0    no. of reboots
   NMIN     =      0    reboot dimension
   EREF     =   0.00    reference energy to select bands
   IMIX   =      4    mixing-type and parameters
     AMIX     =   0.20;   BMIX     =  0.00
     AMIX_MAG =   0.10;   BMIX_MAG =  0.00
     AMIN     =   0.10
     WC   =   100.;   INIMIX=   0;  MIXPRE=   1;  MAXMIX= -45

 Intra band minimization:
[...]
   10        1.577   3.379   0.000   4.956
   11        1.576   3.388   0.000   4.964
   12        1.571   3.403   0.000   4.975
   13        1.568   3.417   0.000   4.986
   14        1.577   3.379   0.000   4.956
   15        1.576   3.389   0.000   4.964
   16        1.571   3.403   0.000   4.975
   17        1.564   3.416   0.000   4.980
   18        1.576   3.379   0.000   4.954
   19        1.558   3.428   0.000   4.986
   20        1.571   3.377   0.000   4.949
   21        1.576   3.378   0.000   4.954
   22        1.564   3.416   0.000   4.980
   23        1.558   3.428   0.000   4.986
   24        1.571   3.377   0.000   4.949
   25        1.568   3.417   0.000   4.986
   26        1.577   3.379   0.000   4.956
   27        1.576   3.388   0.000   4.964
   28        1.571   3.403   0.000   4.975
   29        1.568   3.418   0.000   4.986
   30        1.577   3.379   0.000   4.956
   31        1.576   3.388   0.000   4.964
   32        1.571   3.403   0.000   4.975
   33        0.642   0.786   6.842   8.270
   34        0.649   0.914   6.753   8.316
   35        0.695   0.806   6.838   8.339
   36        0.653   0.769   6.836   8.258
   37        0.642   0.786   6.842   8.270
   38        0.649   0.914   6.754   8.317
   39        0.695   0.806   6.838   8.339
   40        0.653   0.769   6.837   8.259
   41        0.642   0.786   6.842   8.269
   42        0.649   0.914   6.753   8.316
   43        0.695   0.806   6.837   8.339
   44        0.653   0.769   6.837   8.260
   45        0.642   0.786   6.842   8.269
   46        0.649   0.914   6.753   8.316
   47        0.695   0.806   6.838   8.339
   48        0.653   0.769   6.836   8.258
tot         60.801 121.855 109.078 291.735

 magnetization (x)

[...]

  FORCE on cell =-STRESS in cart. coord.  units (eV):
  Direction    XX          YY          ZZ          XY          YZ          ZX
  Alpha Z  1429.14025  1429.14025  1429.14025
  Ewald   -6650.22371 -7355.00133 -4081.37859  1125.62392   -71.69916  -475.36226
  Hartree  1822.57910  1604.23564  2914.58245   535.31444    17.58263  -257.69768
  E(xc)   -1607.38225 -1610.10455 -1599.56627     3.12595    -0.70091    -1.00234
  Local   -1073.47809  -228.99105 -4497.17097 -1598.72862    39.89028   711.91060
  n-local  -831.28791  -823.15423  -788.16183    -0.32102     0.62425     2.16599
  augment   843.32489   858.39918   782.24183   -12.04522     3.03392     3.39959
  Kinetic  6067.19098  6125.33989  5840.26307   -53.02845    11.32795    16.72524
  Fock        0.00000     0.00000     0.00000     0.00000     0.00000     0.00000
  Total      -0.13674    -0.13619    -0.05005    -0.05900     0.05895     0.13916
  in kB      -0.33664    -0.33528    -0.12322    -0.14524     0.14512     0.34258

 VOLUME and BASIS-vectors are now :
  energy-cutoff  :      600.00
  volume of cell :      650.81
      direct lattice vectors                 reciprocal lattice vectors
     7.207290000  0.000000000  0.000000000     0.138748406 -0.088094883  0.003994305
     3.981312720  6.270520764  0.000000000     0.000000000  0.159476388  0.001032745
    -0.473776947 -0.093256119 14.400606737     0.000000000  0.000000000  0.069441519

  length of vectors
     7.207290000  7.427670000 14.408700000     0.164401287  0.159479732  0.069441519

 FORCES acting on ions
    electron-ion (+dipol)            ewald-force                    non-local-force                 convergence-correction
   -.263E+02 0.484E+02 -.390E+02   0.283E+02 -.576E+02 0.496E+02   -.200E+01 0.919E+01 -.105E+02   0.883E-03 -.354E-02 -.103E-01
   0.667E+02 -.117E+03 0.657E+02   -.665E+02 0.139E+03 -.738E+02   -.218E+00 -.219E+02 0.809E+01   0.441E-02 0.408E-02 -.179E-01
   -.279E+02 0.242E+02 0.476E+02   0.333E+02 -.291E+02 -.539E+02   -.540E+01 0.496E+01 0.628E+01   -.128E-02 -.187E-02 -.556E-03
   0.596E+02 -.952E+02 -.181E+02   -.728E+02 0.104E+03 0.274E+02   0.132E+02 -.935E+01 -.927E+01   0.185E-02 0.697E-02 0.117E-01
   -.666E+02 0.117E+03 -.659E+02   0.664E+02 -.139E+03 0.740E+02   0.211E+00 0.219E+02 -.814E+01   -.482E-02 0.925E-03 -.919E-02
   0.258E+02 -.482E+02 0.389E+02   -.278E+02 0.573E+02 -.493E+02   0.195E+01 -.917E+01 0.105E+02   0.122E-02 0.712E-03 -.839E-02
   0.280E+02 -.242E+02 -.476E+02   -.333E+02 0.292E+02 0.539E+02   0.540E+01 -.496E+01 -.627E+01   -.566E-02 0.161E-02 -.107E-01
   -.596E+02 0.951E+02 0.181E+02   0.728E+02 -.104E+03 -.273E+02   -.132E+02 0.934E+01 0.928E+01   -.314E-03 -.422E-02 -.174E-01
   0.256E+02 0.710E+02 -.269E+02   -.303E+02 -.753E+02 0.253E+02   0.466E+01 0.433E+01 0.159E+01   0.175E-02 -.340E-03 -.111E-01
   0.169E+03 0.206E+02 0.648E+01   -.187E+03 -.217E+02 -.758E+01   0.177E+02 0.104E+01 0.109E+01   0.459E-02 0.173E-02 0.734E-02
   0.240E+02 -.537E+02 0.391E+02   -.186E+02 0.719E+02 -.396E+02   -.542E+01 -.181E+02 0.475E+00   0.547E-03 0.164E-02 -.222E-01
   0.525E+02 0.554E+02 -.350E+01   -.497E+02 -.591E+02 0.490E+01   -.280E+01 0.366E+01 -.142E+01   -.597E-03 -.173E-02 0.276E-01
   -.258E+02 -.705E+02 0.267E+02   0.305E+02 0.747E+02 -.252E+02   -.469E+01 -.428E+01 -.158E+01   -.242E-02 -.408E-02 0.105E-01
   -.170E+03 -.208E+02 -.667E+01   0.187E+03 0.219E+02 0.778E+01   -.177E+02 -.109E+01 -.109E+01   0.138E-02 -.140E-02 -.148E-01
   -.239E+02 0.537E+02 -.390E+02   0.185E+02 -.718E+02 0.395E+02   0.542E+01 0.181E+02 -.467E+00   -.144E-02 0.330E-02 0.380E-01
   -.525E+02 -.555E+02 0.348E+01   0.497E+02 0.591E+02 -.488E+01   0.280E+01 -.368E+01 0.142E+01   0.393E-03 0.218E-02 -.231E-01
   -.258E+02 0.482E+02 -.388E+02   0.277E+02 -.574E+02 0.492E+02   -.194E+01 0.918E+01 -.105E+02   0.395E-02 0.817E-02 0.191E-01
   0.666E+02 -.117E+03 0.660E+02   -.664E+02 0.139E+03 -.741E+02   -.217E+00 -.219E+02 0.814E+01   0.393E-02 -.105E-02 0.181E-01
   -.277E+02 0.244E+02 0.478E+02   0.331E+02 -.294E+02 -.541E+02   -.541E+01 0.500E+01 0.632E+01   0.225E-02 -.149E-02 -.802E-02
   0.594E+02 -.952E+02 -.180E+02   -.726E+02 0.105E+03 0.272E+02   0.132E+02 -.935E+01 -.920E+01   0.129E-02 -.187E-02 -.103E-01
   -.667E+02 0.117E+03 -.657E+02   0.664E+02 -.139E+03 0.738E+02   0.223E+00 0.219E+02 -.808E+01   0.335E-02 -.905E-03 0.101E-01
   0.263E+02 -.484E+02 0.389E+02   -.283E+02 0.576E+02 -.494E+02   0.200E+01 -.919E+01 0.105E+02   -.198E-02 -.138E-02 -.521E-02
   0.277E+02 -.244E+02 -.478E+02   -.331E+02 0.294E+02 0.541E+02   0.540E+01 -.500E+01 -.632E+01   -.778E-03 -.162E-02 0.208E-01
   -.593E+02 0.953E+02 0.180E+02   0.726E+02 -.105E+03 -.272E+02   -.132E+02 0.936E+01 0.917E+01   -.486E-02 -.657E-02 0.210E-01
   0.258E+02 0.704E+02 -.268E+02   -.305E+02 -.747E+02 0.252E+02   0.469E+01 0.428E+01 0.157E+01   0.193E-02 0.985E-03 0.647E-02
   0.170E+03 0.208E+02 0.663E+01   -.187E+03 -.219E+02 -.772E+01   0.177E+02 0.108E+01 0.109E+01   -.170E-02 0.127E-02 -.659E-02
   0.241E+02 -.539E+02 0.391E+02   -.186E+02 0.721E+02 -.396E+02   -.542E+01 -.181E+02 0.468E+00   -.281E-02 -.145E-03 0.210E-01
   0.526E+02 0.555E+02 -.335E+01   -.497E+02 -.592E+02 0.478E+01   -.284E+01 0.370E+01 -.141E+01   -.125E-02 -.166E-02 -.241E-01
   -.256E+02 -.710E+02 0.269E+02   0.303E+02 0.754E+02 -.253E+02   -.465E+01 -.433E+01 -.159E+01   -.166E-03 0.224E-02 -.106E-01
   -.169E+03 -.206E+02 -.649E+01   0.187E+03 0.216E+02 0.760E+01   -.177E+02 -.103E+01 -.109E+01   -.438E-02 -.264E-03 -.637E-02
   -.241E+02 0.540E+02 -.391E+02   0.186E+02 -.721E+02 0.396E+02   0.542E+01 0.182E+02 -.471E+00   0.108E-02 -.691E-03 -.190E-01
   -.526E+02 -.554E+02 0.337E+01   0.498E+02 0.592E+02 -.481E+01   0.284E+01 -.370E+01 0.141E+01   0.345E-02 0.315E-03 0.265E-01
   0.977E+02 0.155E+02 -.104E+01   -.976E+02 -.158E+02 0.151E+01   -.694E-01 0.251E+00 -.451E+00   -.278E-02 -.426E-02 -.207E-01
   0.791E+01 0.291E+02 -.744E+01   -.868E+01 -.293E+02 0.695E+01   0.794E+00 0.158E+00 0.506E+00   -.159E-02 0.142E-02 -.243E-01
   0.163E+02 0.964E+02 -.353E+01   -.173E+02 -.967E+02 0.329E+01   0.106E+01 0.284E+00 0.229E+00   -.261E-03 -.576E-02 0.914E-02
   0.101E+03 0.682E+01 0.201E+02   -.101E+03 -.770E+01 -.198E+02   0.320E+00 0.869E+00 -.289E+00   0.268E-03 0.168E-02 -.106E-01
   -.977E+02 -.154E+02 0.968E+00   0.976E+02 0.157E+02 -.142E+01   0.753E-01 -.250E+00 0.455E+00   0.415E-02 0.936E-03 -.190E-03
   -.794E+01 -.291E+02 0.733E+01   0.870E+01 0.293E+02 -.683E+01   -.796E+00 -.155E+00 -.507E+00   0.183E-02 0.103E-02 0.117E-01
   -.163E+02 -.964E+02 0.346E+01   0.174E+02 0.967E+02 -.320E+01   -.106E+01 -.283E+00 -.229E+00   0.822E-03 0.668E-02 -.268E-01
   -.101E+03 -.664E+01 -.202E+02   0.101E+03 0.752E+01 0.199E+02   -.329E+00 -.868E+00 0.297E+00   0.716E-02 -.387E-02 -.246E-01
   0.973E+02 0.159E+02 -.896E+00   -.972E+02 -.161E+02 0.133E+01   -.477E-01 0.238E+00 -.438E+00   0.479E-02 -.255E-02 0.284E-01
   0.819E+01 0.287E+02 -.721E+01   -.896E+01 -.289E+02 0.668E+01   0.791E+00 0.169E+00 0.499E+00   -.635E-03 -.309E-02 0.279E-01
   0.164E+02 0.964E+02 -.354E+01   -.174E+02 -.967E+02 0.332E+01   0.104E+01 0.297E+00 0.197E+00   0.242E-03 -.167E-02 -.118E-01
   0.101E+03 0.667E+01 0.201E+02   -.101E+03 -.755E+01 -.199E+02   0.331E+00 0.867E+00 -.297E+00   -.884E-02 0.219E-02 0.555E-02
   -.973E+02 -.159E+02 0.100E+01   0.973E+02 0.161E+02 -.145E+01   0.447E-01 -.232E+00 0.431E+00   -.104E-02 0.358E-02 -.147E-01
   -.814E+01 -.288E+02 0.734E+01   0.890E+01 0.289E+02 -.682E+01   -.792E+00 -.169E+00 -.501E+00   0.914E-03 -.213E-02 -.110E-01
   -.164E+02 -.964E+02 0.367E+01   0.175E+02 0.967E+02 -.347E+01   -.104E+01 -.298E+00 -.200E+00   -.130E-02 -.272E-02 0.306E-01
   -.101E+03 -.683E+01 -.200E+02   0.101E+03 0.771E+01 0.197E+02   -.320E+00 -.870E+00 0.292E+00   0.136E-02 0.111E-03 0.290E-01
   -.148E-01 0.261E-01 0.182E-01   -.483E-12 0.000E+00 -.163E-12   0.131E-01 -.168E-01 -.289E-01   0.892E-02 -.712E-02 -.475E-03

 POSITION                                       TOTAL-FORCE (eV/Angst)
      4.43143      0.34250      7.54275         0.001189      0.002566     -0.002108
      6.19999      5.36943      6.87744        -0.002374     -0.004551      0.004751
      9.95372      5.47609     10.60590        -0.006031      0.000615     -0.008930
      1.20941      0.20152     11.11813         0.005530      0.000382     -0.003239
      1.03185      0.82857      3.92445         0.001253      0.000426     -0.007811
     10.00852      5.85337      3.25871        -0.003931     -0.001546      0.010044
      2.63313      3.81338      7.39457         0.007272      0.000448      0.008782
      7.39595      2.81749      6.88219        -0.002958      0.001186      0.002387
      7.85484      4.54314      9.06043         0.000334     -0.003641     -0.004056
      8.22016      4.72743      1.74967        -0.011360     -0.003117     -0.004182
      8.45981      5.07312      5.40023         0.002462     -0.001246     -0.009566
      8.43647      4.80460     12.67426         0.005927      0.008258      0.007382
      6.58381      1.65412      1.73931         0.001222     -0.004100      0.009785
      6.21539      1.47654      9.05049         0.008593     -0.002689     -0.001427
      4.12709      4.21690     12.60067        -0.000717     -0.000511      0.004346
      4.15044      4.48486      5.32650        -0.004580     -0.009528     -0.005455
      3.05254      3.52891      0.34129         0.004512      0.001480     -0.008258
      7.57415      2.18987     14.07631         0.001937     -0.001184      0.005616
      4.59873      2.38251      3.40502        -0.006793      0.000440     -0.006912
      7.04142      3.37992      3.91509        -0.000516      0.005960      0.001170
      6.38696      3.91997     11.12317         0.000420      0.002304     -0.002059
      4.17402      2.67657     10.45830         0.000268     -0.002152      0.002753
      4.48120      0.72931      0.19527         0.004583     -0.002193      0.009234
      5.54615      5.90879     14.08639        -0.002544     -0.005978     -0.004132
      2.49598      1.45770      1.86070        -0.000355      0.003573     -0.002992
      2.38988      1.54278      8.95012        -0.012663      0.001913     -0.001786
      2.62770      1.89480     12.60125         0.002166      0.001453      0.000026
      3.08265      1.71089      5.47482         0.006421     -0.003582      0.003370
      4.73187      4.74614      8.94033         0.002239      0.003159      0.004745
      4.84117      4.65460      1.85062         0.008604      0.001827      0.009056
      5.97825      1.12345      5.39951        -0.003375     -0.000961     -0.000420
      5.52298      1.30799     12.52594        -0.005685      0.003562     -0.005120
      3.22765      1.91781      7.33495        -0.006763      0.034118      0.006223
      7.97186      4.63357      7.17035         0.025436      0.015376     -0.003928
      8.07896      4.75592     10.87764        -0.005192      0.000922     -0.004319
      8.54674      4.49606      3.60606        -0.030917     -0.003166      0.003268
      5.37771      1.10120     10.66567         0.012825     -0.034825     -0.001312
      4.61505      4.65589     10.83041        -0.028807     -0.011690      0.002263
      4.50800      4.53330      7.12312         0.007357      0.001135      0.004120
      5.89068      1.70252      7.19282         0.019042      0.006921      0.003929
      9.05621      5.10459      0.13378         0.015310      0.013675      0.024397
      2.13876      1.45563     14.37137         0.022996      0.019398     -0.008613
      2.72308      1.66521      3.67849        -0.030342      0.017660     -0.035474
      2.71479      1.31655     10.80766        -0.019024     -0.010104     -0.004016
      4.00473      4.27762      3.46651        -0.017460     -0.007742     -0.032412
      6.46737      1.56269      3.62938        -0.026015     -0.019432      0.007188
      5.88279      1.35348     14.32227         0.029965     -0.017910      0.031911
      4.04059      4.79283     14.39499         0.030540      0.003087      0.001783
    total drift:                                0.007281      0.002169     -0.011200

  FREE ENERGIE OF THE ION-ELECTRON SYSTEM (eV)
  free  energy   TOTEN  =      -321.05163203 eV

  energy  without entropy=     -321.01327304  energy(sigma->0) =     -321.03245254

 stress matrix after NEB project (eV)
     -0.13674     -0.05903      0.13916
     -0.05900     -0.13619      0.05894
      0.13914      0.05895     -0.05005
  FORCES: max atom, RMS     0.049909    0.019912
  FORCE total and by dimension    0.137953    0.035474
  Stress total and by dimension    0.303959    0.139158

 reached required accuracy - stopping structural energy minimisation
 writing wavefunctions

 total charge

[...]

 magnetization (x)

# of ion       s       p       d       tot
    1        0.000   0.000   0.000   0.000
    2        0.000   0.000   0.000   0.000
    3        0.000   0.000   0.000   0.000
    4        0.000   0.001   0.000   0.001
    5        0.000   0.000   0.000   0.000
    6        0.000   0.000   0.000   0.000
    7        0.000   0.000   0.000   0.000
    8        0.000   0.001   0.000   0.001
    9       -0.000  -0.000   0.000  -0.000
   10        0.000  -0.000   0.000  -0.000
   11        0.000  -0.000   0.000  -0.000
   12        0.000   0.000   0.000   0.000
   13       -0.000  -0.000   0.000  -0.000
   14        0.000  -0.000   0.000  -0.000
   15        0.000   0.000   0.000   0.000
   16        0.000   0.000   0.000   0.000
   17        0.000   0.000   0.000   0.000
   18        0.000   0.000   0.000   0.000
   19        0.000   0.000   0.000   0.000
   20        0.000   0.001   0.000   0.001
   21        0.000   0.000   0.000   0.000
   22        0.000   0.000   0.000   0.000
   23        0.000   0.000   0.000   0.000
   24        0.000   0.001   0.000   0.001
   25       -0.000  -0.000   0.000  -0.000
   26        0.000  -0.000   0.000  -0.000
   27        0.000   0.000   0.000   0.000
   28        0.000   0.000   0.000   0.000
   29       -0.000  -0.000   0.000  -0.000
   30        0.000  -0.000   0.000  -0.000
   31        0.000   0.000   0.000   0.000
   32        0.000   0.000   0.000   0.000
   33        0.000   0.000   0.003   0.003
   34        0.000   0.000   0.001   0.001
   35       -0.000   0.000  -0.001  -0.001
   36        0.000   0.000   0.001   0.001
   37        0.000   0.000   0.003   0.003
   38        0.000   0.000   0.001   0.001
   39       -0.000   0.000  -0.001  -0.001
   40        0.000   0.000   0.001   0.001
   41        0.000   0.000   0.002   0.003
   42        0.000   0.000   0.001   0.001
   43        0.000   0.000  -0.001  -0.001
   44        0.000   0.000   0.001   0.001
   45        0.000   0.000   0.003   0.003
   46        0.000   0.000   0.001   0.001
   47        0.000   0.000  -0.001  -0.001
   48        0.000   0.000   0.001   0.001
tot          0.001   0.006   0.017   0.023