 vasp.5.4.4.18Apr17-6-g9f103f2a35 (build Aug 21 2019 12:36:18) complex

 executed on IFC18.0.1.163_CrayMP date 2019.08.29  00:24:59

 INCAR:
 POTCAR:    PAW_PBE O 08Apr2002
 POTCAR:    PAW_PBE Ir 06Sep2000

 POTCAR:    PAW_PBE O 08Apr2002
   VRHFIN =O: s2p4

   TITEL  = PAW_PBE O 08Apr2002
   POMASS =   16.000; ZVAL   =    6.000    mass and valenz
   ENMAX  =  400.000; ENMIN  =  300.000 eV

 POTCAR:    PAW_PBE Ir 06Sep2000
   VRHFIN =Ir: s1d8

   TITEL  = PAW_PBE Ir 06Sep2000
   POMASS =  192.220; ZVAL   =    9.000    mass and valenz
   ENMAX  =  210.864; ENMIN  =  158.148 eV

 Optimization of the real space projectors (new method)

 maximal supplied QI-value         = 24.76
 optimisation between [QCUT,QGAM] = [ 12.38, 31.19] = [ 42.90,272.45] Ry
 Optimized for a Real-space Cutoff    0.88 Angstroem

   l    n(q)    QCUT    max X(q) W(low)/X(q) W(high)/X(q)  e(spline)
   0      8    12.378    20.381    0.23E-03    0.15E-03    0.14E-06
   0      8    12.378    15.268    0.25E-03    0.16E-03    0.15E-06
   1      8    12.378     5.964    0.24E-03    0.11E-03    0.16E-06
   1      8    12.378     5.382    0.21E-03    0.84E-04    0.13E-06
 Optimization of the real space projectors (new method)

 maximal supplied QI-value         = 14.36
 optimisation between [QCUT,QGAM] = [ 12.49, 31.31] = [ 43.72,274.50] Ry
 Optimized for a Real-space Cutoff    1.40 Angstroem

   l    n(q)    QCUT    max X(q) W(low)/X(q) W(high)/X(q)  e(spline)
   2     12    12.495   134.116    0.29E-03    0.64E-03    0.30E-04
   2     12    12.495   130.192    0.29E-03    0.64E-03    0.30E-04
   0     13    12.495    60.310    0.11E-03    0.19E-03    0.31E-04
   0     13    12.495    39.218    0.10E-03    0.18E-03    0.29E-04
   1     13    12.495    18.439    0.29E-03    0.21E-04    0.43E-04
   1     13    12.495    12.760    0.22E-03    0.16E-04    0.33E-04
  PAW_PBE O 08Apr2002                   :
  PAW_PBE Ir 06Sep2000                  :

 POSCAR:  O Ir
  positions in cartesian coordinates
 exchange correlation table for  LEXCH =        8
   RHO(1)=    0.500       N(1)  =     2000
   RHO(2)=  100.500       N(2)  =     4000

 VTST: version 3.2, (02/03/18)

 CHAIN: initializing optimizer

 OPT: Using VASP Conjugate-Gradient optimizer
 CHAIN: Read ICHAIN            0

 POSCAR:  O Ir
  positions in cartesian coordinates

 ion  position               nearest neighbor table
   1  0.745  0.245  0.508-  13 1.84  13 2.06
   2  0.255  0.755  0.508-  14 1.84  14 2.06
   3  0.245  0.255  0.492-  15 1.84  15 2.06
   4  0.755  0.745  0.492-  16 1.84  16 2.06
   5  0.504  0.750  0.001-  14 1.89  16 1.98
   6  0.496  0.250  0.001-  13 1.89  15 1.98
   7  0.750  0.496  0.999-  16 1.89  13 1.98
   8  0.250  0.504  0.999-  15 1.89  14 1.98
   9  0.996  0.250  0.999-  15 1.89  13 1.98
  10  0.004  0.750  0.999-  16 1.89  14 1.98
  11  0.750  0.996  0.001-  13 1.89  16 1.98
  12  0.250  0.004  0.001-  14 1.89  15 1.98
  13  0.740  0.240  0.036-   1 1.84   6 1.89  11 1.89   9 1.98   7 1.98   1 2.06
  14  0.260  0.760  0.036-   2 1.84   5 1.89  12 1.89  10 1.98   8 1.98   2 2.06
  15  0.240  0.260  0.964-   3 1.84   8 1.89   9 1.89   6 1.98  12 1.98   3 2.06
  16  0.760  0.740  0.964-   4 1.84   7 1.89  10 1.89   5 1.98  11 1.98   4 2.06

  LATTYP: Found a simple tetragonal cell.
 ALAT       =     7.7043600000
 C/A-ratio  =     0.5060186699

  Lattice vectors:

 A1 = (   7.7043600000,   0.0000000000,   0.0000000000)
 A2 = (   0.0000000000,   7.7043600000,   0.0000000000)
 A3 = (   0.0000000000,   0.0000000000,   3.8985500000)

Analysis of symmetry for initial positions (statically):
 Subroutine PRICEL returns:
 Original cell was already a primitive cell.

 Routine SETGRP: Setting up the symmetry group for a
 simple tetragonal supercell.

 Subroutine GETGRP returns: Found  8 space group operations
 (whereof  4 operations were pure point group operations)
 out of a pool of 16 trial point group operations.

The static configuration has the point symmetry S_4 .
 The point group associated with its full space group is D_2d.

Analysis of symmetry for dynamics (positions and initial velocities):
 Subroutine PRICEL returns:
 Original cell was already a primitive cell.

[...]

The dynamic configuration has the point symmetry S_4 .
 The point group associated with its full space group is D_2d.

Analysis of structural, dynamic, and magnetic symmetry:
 Subroutine PRICEL returns:
 Original cell was already a primitive cell.

 Routine SETGRP: Setting up the symmetry group for a
 simple tetragonal supercell.

 Subroutine GETGRP returns: Found  8 space group operations
 (whereof  4 operations were pure point group operations)
 out of a pool of 16 trial point group operations.

The magnetic configuration has the point symmetry S_4 .
 The point group associated with its full space group is D_2d.

 Subroutine INISYM returns: Found  8 space group operations
 (whereof  4 operations are pure point group operations),
 and found     1 'primitive' translations

 KPOINTS: KPOINTS created by Atomic Simulation Env

Automatic generation of k-mesh.
Space group operators:
 irot       det(A)        alpha          n_x          n_y          n_z        tau_x        tau_y        tau_z
    1     1.000000     0.000000     1.000000     0.000000     0.000000     0.000000     0.000000     0.000000
    2    -1.000000    90.000000     0.000000     0.000000    -1.000000     0.000000     0.000000     0.000000
    3     1.000000   180.000000     0.000000     0.000000     1.000000     0.000000     0.000000     0.000000
    4    -1.000000    90.000000     0.000000     0.000000     1.000000     0.000000     0.000000     0.000000
    5     1.000000   180.000000     0.000000     1.000000     0.000000     0.500000     0.500000     0.000000
    6    -1.000000   180.000000     0.707107     0.707107     0.000000     0.500000     0.500000     0.000000
    7     1.000000   180.000000     1.000000     0.000000     0.000000     0.500000     0.500000     0.000000
    8    -1.000000   180.000000     0.707107    -0.707107     0.000000     0.500000     0.500000     0.000000

 Subroutine IBZKPT returns following result:

 Found      9 irreducible k-points:

 Following reciprocal coordinates:
            Coordinates               Weight
  0.000000  0.000000  0.000000      1.000000
  0.500000  0.000000  0.000000      2.000000
  0.500000  0.500000  0.000000      1.000000
  0.000000  0.000000  0.200000      2.000000
  0.500000  0.000000  0.200000      4.000000
  0.500000  0.500000  0.200000      2.000000
  0.000000  0.000000  0.400000      2.000000
  0.500000  0.000000  0.400000      4.000000
  0.500000  0.500000  0.400000      2.000000

 Following cartesian coordinates:
            Coordinates               Weight
  0.000000  0.000000  0.000000      1.000000
  0.064898  0.000000  0.000000      2.000000
  0.064898  0.064898  0.000000      1.000000
  0.000000  0.000000  0.051301      2.000000
  0.064898  0.000000  0.051301      4.000000
  0.064898  0.064898  0.051301      2.000000
  0.000000  0.000000  0.102602      2.000000
  0.064898  0.000000  0.102602      4.000000
  0.064898  0.064898  0.102602      2.000000

 SYSTEM =  unknown system
 POSCAR =   O Ir

 Startparameter for this run:
   NWRITE =      2    write-flag & timer
   PREC   = high      normal or accurate (medium, high low for compatibility)
   ISTART =      0    job   : 0-new  1-cont  2-samecut
   ICHARG =      2    charge: 1-file 2-atom 10-const
   ISPIN  =      2    spin polarized calculation?
   LNONCOLLINEAR =      F non collinear calculations
   LSORBIT =      F    spin-orbit coupling
   INIWAV =      1    electr: 0-lowe 1-rand  2-diag
   LASPH  =      T    aspherical Exc in radial PAW
   METAGGA=      F    non-selfconsistent MetaGGA calc.

 Electronic Relaxation 1
   ENCUT  =  600.0 eV  44.10 Ry    6.64 a.u.  15.39 15.39  7.79*2*pi/ulx,y,z
   ENINI  =  600.0     initial cutoff
   ENAUG  =  605.4 eV  augmentation charge cutoff
   NELM   =    220;   NELMIN=  2; NELMDL= -5     # of ELM steps
   EDIFF  = 0.1E-05   stopping-criterion for ELM
   LREAL  =      T    real-space projection
   NLSPLINE    = F    spline interpolate recip. space projectors
   LCOMPAT=      F    compatible to vasp.4.4
   GGA_COMPAT  = T    GGA compatible to vasp.4.4-vasp.4.6
   LMAXPAW     = -100 max onsite density
   LMAXMIX     =    6 max onsite mixed and CHGCAR
   VOSKOWN=      0    Vosko Wilk Nusair interpolation
   ROPT   =   -0.00040  -0.00040
 Ionic relaxation
   EDIFFG = 0.5E-02   stopping-criterion for IOM
   NSW    =    150    number of steps for IOM
   NBLOCK =      1;   KBLOCK =    150    inner block; outer block
   IBRION =      2    ionic relax: 0-MD 1-quasi-New 2-CG
   NFREE  =      1    steps in history (QN), initial steepest desc. (CG)
   ISIF   =      7    stress and relaxation
   IWAVPR =     11    prediction:  0-non 1-charg 2-wave 3-comb
   ISYM   =      2    0-nonsym 1-usesym 2-fastsym
   LCORR  =      T    Harris-Foulkes like correction to forces

   POTIM  = 0.0300    time-step for ionic-motion
   TEIN   =    0.0    initial temperature
   TEBEG  =    0.0;   TEEND  =   0.0 temperature during run
   SMASS  =  -3.00    Nose mass-parameter (am)
   estimated Nose-frequenzy (Omega)   =  0.10E-29 period in steps =****** mass=  -0.136E-26a.u.
   SCALEE = 1.0000    scale energy and forces
   NPACO  =    256;   APACO  = 16.0  distance and # of slots for P.C.
   PSTRESS=    0.0 pullay stress

  Mass of Ions in am
   POMASS =  16.00192.22
  Ionic Valenz
   ZVAL   =   6.00  9.00
  Atomic Wigner-Seitz radii
  virtual crystal weights
   VCA    =   1.00  1.00
   NELECT =     108.0000    total number of electrons
   NUPDOWN=      -1.0000    fix difference up-down

 DOS related values:
   EMIN   =  10.00;   EMAX   =-10.00  energy-range for DOS
   EFERMI =   0.00
   ISMEAR =     0;   SIGMA  =   0.05  broadening in eV -4-tet -1-fermi 0-gaus

 Electronic relaxation 2 (details)
   IALGO  =     68    algorithm
   LDIAG  =      T    sub-space diagonalisation (order eigenvalues)
   LSUBROT=      F    optimize rotation matrix (better conditioning)
   TURBO    =      0    0=normal 1=particle mesh
   IRESTART =      0    0=no restart 2=restart with 2 vectors
   NREBOOT  =      0    no. of reboots
   NMIN     =      0    reboot dimension
   EREF     =   0.00    reference energy to select bands
   IMIX   =      4    mixing-type and parameters
     AMIX     =   0.20;   BMIX     =  0.00
     AMIX_MAG =   0.10;   BMIX_MAG =  0.00
     AMIN     =   0.10
     WC   =   100.;   INIMIX=   0;  MIXPRE=   1;  MAXMIX= -45

 Intra band minimization:
   WEIMIN = 0.0010     energy-eigenvalue tresh-hold
   EBREAK =  0.35E-08  absolut break condition
   DEPER  =   0.30     relativ break condition

   TIME   =   0.40     timestep for ELM

  volume/ion in A,a.u.               =      14.46        97.60
  Fermi-wavevector in a.u.,A,eV,Ry     =   1.269864  2.399696 21.940149  1.612555
  Thomas-Fermi vector in A             =   2.402883

 Write flags
   LWAVE        =      T    write WAVECAR
   LDOWNSAMPLE  =      F    k-point downsampling of WAVECAR
   LCHARG       =      T    write CHGCAR
   LVTOT        =      F    write LOCPOT, total local potential
[...]
   -.129E+02 0.132E+01 0.810E+00   0.176E+02 -.182E+01 -.130E+01   -.437E+01 0.513E+00 0.473E+00   0.120E-02 0.107E-02 0.465E-03
   0.129E+02 -.132E+01 0.810E+00   -.176E+02 0.182E+01 -.130E+01   0.437E+01 -.513E+00 0.473E+00   -.120E-02 -.107E-02 0.465E-03
   0.132E+01 0.129E+02 -.810E+00   -.182E+01 -.176E+02 0.130E+01   0.513E+00 0.437E+01 -.473E+00   0.107E-02 -.120E-02 -.465E-03
   -.132E+01 -.129E+02 -.810E+00   0.182E+01 0.176E+02 0.130E+01   -.513E+00 -.437E+01 -.473E+00   -.107E-02 0.120E-02 -.465E-03
   0.129E+02 0.132E+01 -.810E+00   -.176E+02 -.182E+01 0.130E+01   0.437E+01 0.513E+00 -.473E+00   -.120E-02 0.107E-02 -.465E-03
   -.129E+02 -.132E+01 -.810E+00   0.176E+02 0.182E+01 0.130E+01   -.437E+01 -.513E+00 -.473E+00   0.120E-02 -.107E-02 -.465E-03
   -.132E+01 0.129E+02 0.810E+00   0.182E+01 -.176E+02 -.130E+01   -.513E+00 0.437E+01 0.473E+00   -.107E-02 -.120E-02 0.465E-03
   0.132E+01 -.129E+02 0.810E+00   -.182E+01 0.176E+02 -.130E+01   0.513E+00 -.437E+01 0.473E+00   0.107E-02 0.120E-02 0.465E-03
   -.342E+01 -.342E+01 0.537E+01   0.319E+01 0.319E+01 -.546E+01   0.660E+00 0.660E+00 -.163E+01   0.165E-02 0.165E-02 0.577E-02
   0.342E+01 0.342E+01 0.537E+01   -.319E+01 -.319E+01 -.546E+01   -.660E+00 -.660E+00 -.163E+01   -.165E-02 -.165E-02 0.577E-02
   -.342E+01 0.342E+01 -.537E+01   0.319E+01 -.319E+01 0.546E+01   0.660E+00 -.660E+00 0.163E+01   0.165E-02 -.165E-02 -.577E-02
   0.342E+01 -.342E+01 -.537E+01   -.319E+01 0.319E+01 0.546E+01   -.660E+00 0.660E+00 0.163E+01   -.165E-02 0.165E-02 -.577E-02
   -.146E-05 -.146E-05 -.446E-08   0.928E-13 -.826E-13 -.115E-13   -.777E-15 0.000E+00 -.222E-15   -.950E-12 0.222E-12 0.207E-12

 POSITION                                       TOTAL-FORCE (eV/Angst)
      5.73636      1.88418      1.97945         0.020278      0.020278      0.822420
      1.96800      5.82018      1.97945        -0.020278     -0.020278      0.822420
      1.88418      1.96800      1.91910         0.020278     -0.020278     -0.822420
      5.82018      5.73636      1.91910        -0.020278      0.020278     -0.822420
      3.88454      5.77958      0.00441         0.298904      0.016823     -0.014373
      3.81982      1.92478      0.00441        -0.298904     -0.016823     -0.014373
      5.77958      3.81982      3.89414         0.016823     -0.298904      0.014373
      1.92478      3.88454      3.89414        -0.016823      0.298904      0.014373
      7.67200      1.92740      3.89414        -0.298904      0.016823      0.014373
      0.03236      5.77696      3.89414         0.298904     -0.016823      0.014373
      5.77696      7.67200      0.00441        -0.016823     -0.298904     -0.014373
      1.92740      0.03236      0.00441         0.016823      0.298904     -0.014373
      5.70254      1.85036      0.13988         0.431648      0.431648     -1.718548
      2.00182      5.85400      0.13988        -0.431648     -0.431648     -1.718548
      1.85036      2.00182      3.75867         0.431648     -0.431648      1.718548
      5.85400      5.70254      3.75867        -0.431648      0.431648      1.718548
    total drift:                               -0.000001     -0.000001     -0.000000

  FREE ENERGIE OF THE ION-ELECTRON SYSTEM (eV)
  free  energy   TOTEN  =       -99.48318268 eV

  energy  without entropy=      -99.46718316  energy(sigma->0) =      -99.47518292

 stress matrix after NEB project (eV)
     -8.37281      0.00000      0.00000
      0.00000     -8.37281      0.00000
      0.00000      0.00000    -11.52259
  FORCES: max atom, RMS     1.823746    1.022608
  FORCE total and by dimension    4.090433    1.718548
  Stress total and by dimension   16.522044   11.522590

[...]

 d Force = 0.0000000E+00[ 0.000E+00, 0.000E+00]  d Energy = 0.4520668E-01-0.452E-01
 d Force = 0.0000000E+00[ 0.000E+00, 0.000E+00]  d Ewald  = 0.8816221E+01-0.882E+01

 stress matrix after NEB project (eV)
     -7.10207      0.00000      0.00000
      0.00000     -7.10207      0.00000
      0.00000      0.00000    -10.44463
  FORCES: max atom, RMS     1.909911    1.077550
  FORCE total and by dimension    4.310199    1.794922
  Stress total and by dimension   14.490309   10.444632
 Steepest descent step on ions:
 trial-energy change:   -0.045207  1 .order   -0.045103   -0.048188   -0.042018
  (g-gl).g = 0.482E-01      g.g   = 0.482E-01  gl.gl    = 0.000E+00
 g(Force)  = 0.000E+00   g(Stress)= 0.482E-01 ortho     = 0.000E+00
 gamma     =   0.00000
 trial     =   1.00000
 opt step  =   4.00000  (harmonic =   7.81010) maximal distance =0.00000000
 next E    =   -99.629836   (d E  =  -0.14665)

[...]

 d Force = 0.0000000E+00[ 0.000E+00, 0.000E+00]  d Energy = 0.2754875E-01-0.275E-01
 d Force = 0.0000000E+00[ 0.000E+00, 0.000E+00]  d Ewald  = 0.5409179E+02-0.541E+02

[...]

 real space projection operators:
  max/ min on nodes  :        475.88        424.91

[...]

 eigenvalue-minimisations  :  2533
 total energy-change (2. order) : 0.2122611E-05  (-0.1452587E-05)
 number of electron     107.9999997 magnetization       0.2024053
 augmentation part       17.2600482 magnetization       0.0759869

[...]

 Broyden mixing:
  rms(total) = 0.25504E-02    rms(broyden)= 0.25503E-02
  rms(prec ) = 0.26787E-02
  weight for this iteration     100.00

 eigenvalues of (default mixing * dielectric matrix)
  average eigenvalue GAMMA=   2.9451
  7.5928  7.5928  5.8365  3.0528  3.0528  0.7659  1.0028  1.0028  0.9864  0.7555
  0.7555

[...]

--------------------------------------- Iteration      5(  13)  ---------------------------------------

 eigenvalue-minimisations  :  1404
 total energy-change (2. order) :-0.8459183E-06  (-0.1416067E-06)
 number of electron     107.9999997 magnetization       0.2052021
 augmentation part       17.2598343 magnetization       0.0763588

 Free energy of the ion-electron system (eV)
  alpha Z        PSCENC =       380.89406865
  Ewald energy   TEWEN  =     -5231.06999450
  -Hartree energ DENC   =     -2444.54467231
  -exchange      EXHF   =         0.00000000
  -V(xc)+E(xc)   XCENC  =       270.43790899
  PAW double counting   =     10088.28590442    -9968.95807883
  entropy T*S    EENTRO =        -0.01664174
  eigenvalues    EBANDS =      -623.77405833
  atomic energy  EATOM  =      7429.07371459
  Solvation  Ediel_sol  =         0.00000000
  free energy    TOTEN  =       -99.67184906 eV

  energy without entropy =      -99.65520732  energy(sigma->0) =      -99.66352819

 average (electrostatic) potential at core
  the test charge radii are     0.7215  1.2793
  (the norm of the test charge is              1.0000)
       1 -74.3750       2 -74.3750       3 -74.3750       4 -74.3750       5 -73.8211
       6 -73.8211       7 -73.8211       8 -73.8211       9 -73.8211      10 -73.8211
      11 -73.8211      12 -73.8211      13 -59.4722      14 -59.4722      15 -59.4722
      16 -59.4722

 E-fermi :   1.7194     XC(G=0):  -9.5751     alpha+bet : -8.0324

[...]

 spin component 2

[...]

 k-point     9 :       0.5000    0.5000    0.4000
  band No.  band energies     occupation
      1     -16.9347      1.00000
      2     -16.9347      1.00000
      3     -16.9317      1.00000
      4     -16.9317      1.00000
      5     -16.6030      1.00000
      6     -16.6030      1.00000
      7     -16.6023      1.00000
      8     -16.6023      1.00000
      9     -16.4937      1.00000
     10     -16.4937      1.00000
     11     -16.4915      1.00000
     12     -16.4915      1.00000
     13      -7.1969      1.00000
     14      -7.1969      1.00000
     15      -7.1961      1.00000
     16      -7.1961      1.00000
     17      -5.7183      1.00000
     18      -5.7183      1.00000
     19      -5.6786      1.00000
     20      -5.6786      1.00000
     21      -5.2411      1.00000
     22      -5.2411      1.00000
     23      -5.1867      1.00000
     24      -5.1867      1.00000
     25      -4.7138      1.00000
     26      -4.7138      1.00000
     27      -4.6988      1.00000
     28      -4.6988      1.00000
     29      -4.6532      1.00000
     30      -4.6532      1.00000
     31      -4.5835      1.00000
     32      -4.5835      1.00000
     33      -4.0392      1.00000
     34      -4.0392      1.00000
     35      -3.9894      1.00000
     36      -3.9894      1.00000
     37      -0.1733      1.00000
     38      -0.1733      1.00000
     39      -0.1694      1.00000
     40      -0.1694      1.00000
     41      -0.0010      1.00000
     42      -0.0010      1.00000
     43       0.0681      1.00000
     44       0.0681      1.00000
     45       0.2112      1.00000
     46       0.2112      1.00000
     47       0.2358      1.00000
     48       0.2358      1.00000
     49       1.6248      0.99627
     50       1.6248      0.99627
     51       1.7022      0.68620
     52       1.7022      0.68620
     53       2.0250      0.00000
     54       2.0250      0.00000
     55       2.0321      0.00000
     56       2.0321      0.00000
     57       2.1569      0.00000
     58       2.1569      0.00000
     59       2.1688      0.00000
     60       2.1688      0.00000
     61       5.7838      0.00000
     62       5.7838      0.00000
     63       5.7859      0.00000
     64       5.7859      0.00000
     65       6.9616      0.00000
     66       6.9616      0.00000
     67       6.9664      0.00000
     68       6.9664      0.00000
     69      10.7844      0.00000
     70      10.7844      0.00000
     71      10.7985      0.00000
     72      10.7985      0.00000

[...]

 soft charge-density along one line, spin component           2
         0         1         2         3         4         5         6         7         8         9
 total charge-density along one line

------------------------ aborting loop because EDIFF is reached ----------------------------------------

[...]

  FORCE on cell =-STRESS in cart. coord.  units (eV):
  Direction    XX          YY          ZZ          XY          YZ          ZX
  Alpha Z   380.89407   380.89407   380.89407
  Ewald   -1729.27879 -1729.27879 -1772.52843    -0.00000    -0.00000    -0.00000
  Hartree   830.36477   830.36477   783.66436    -0.00000    -0.00000    -0.00000
  E(xc)    -520.92047  -520.92047  -520.56846    -0.00000    -0.00000    -0.00000
  Local    -935.76975  -935.76975  -833.81157     0.00000    -0.00000     0.00000
  n-local  -272.25995  -288.21327  -282.20499    -0.00000     0.00000     0.00000
  augment   232.36432   232.36432   228.65380    -0.00000    -0.00000     0.00000
  Kinetic  2023.46345  2024.58507  2012.62331     0.00000     0.00000    -0.00000
  Fock        0.00000     0.00000     0.00000     0.00000     0.00000     0.00000
  Total       1.44180     1.44180    -3.27791     0.00000     0.00000     0.00000
  in kB      10.38260    10.38260   -23.60463     0.00000     0.00000     0.00000

 VOLUME and BASIS-vectors are now :
  energy-cutoff  :      600.00
  volume of cell :      222.49
      direct lattice vectors                 reciprocal lattice vectors
     7.604104522  0.000000000  0.000000000     0.131507924  0.000000000  0.000000000
     0.000000000  7.604104522  0.000000000     0.000000000  0.131507924  0.000000000
     0.000000000  0.000000000  3.847818856     0.000000000  0.000000000  0.259887494

  length of vectors
     7.604104522  7.604104522  3.847818856     0.131507924  0.131507924  0.259887494

 FORCES acting on ions
    electron-ion (+dipol)            ewald-force                    non-local-force                 convergence-correction
   -.221E+01 -.221E+01 -.316E+02   0.341E+01 0.341E+01 0.442E+02   -.116E+01 -.116E+01 -.113E+02   -.127E-02 -.127E-02 0.486E-03
   0.221E+01 0.221E+01 -.316E+02   -.341E+01 -.341E+01 0.442E+02   0.116E+01 0.116E+01 -.113E+02   0.127E-02 0.127E-02 0.486E-03
   -.221E+01 0.221E+01 0.316E+02   0.341E+01 -.341E+01 -.442E+02   -.116E+01 0.116E+01 0.113E+02   -.127E-02 0.127E-02 -.486E-03
   0.221E+01 -.221E+01 0.316E+02   -.341E+01 0.341E+01 -.442E+02   0.116E+01 -.116E+01 0.113E+02   0.127E-02 -.127E-02 -.486E-03
   -.131E+02 0.133E+01 0.801E+00   0.180E+02 -.187E+01 -.133E+01   -.448E+01 0.567E+00 0.503E+00   -.121E-02 0.243E-02 0.465E-03
   0.131E+02 -.133E+01 0.801E+00   -.180E+02 0.187E+01 -.133E+01   0.448E+01 -.567E+00 0.503E+00   0.121E-02 -.243E-02 0.465E-03
   0.133E+01 0.131E+02 -.801E+00   -.187E+01 -.180E+02 0.133E+01   0.567E+00 0.448E+01 -.503E+00   0.243E-02 0.121E-02 -.465E-03
   -.133E+01 -.131E+02 -.801E+00   0.187E+01 0.180E+02 0.133E+01   -.567E+00 -.448E+01 -.503E+00   -.243E-02 -.121E-02 -.465E-03
   0.131E+02 0.133E+01 -.801E+00   -.180E+02 -.187E+01 0.133E+01   0.448E+01 0.567E+00 -.503E+00   0.121E-02 0.243E-02 -.465E-03
   -.131E+02 -.133E+01 -.801E+00   0.180E+02 0.187E+01 0.133E+01   -.448E+01 -.567E+00 -.503E+00   -.121E-02 -.243E-02 -.465E-03
   -.133E+01 0.131E+02 0.801E+00   0.187E+01 -.180E+02 -.133E+01   -.567E+00 0.448E+01 0.503E+00   -.243E-02 0.121E-02 0.465E-03
   0.133E+01 -.131E+02 0.801E+00   -.187E+01 0.180E+02 -.133E+01   0.567E+00 -.448E+01 0.503E+00   0.243E-02 -.121E-02 0.465E-03
   -.337E+01 -.337E+01 0.528E+01   0.328E+01 0.328E+01 -.561E+01   0.735E+00 0.735E+00 -.171E+01   -.193E-02 -.193E-02 0.193E-03
   0.337E+01 0.337E+01 0.528E+01   -.328E+01 -.328E+01 -.561E+01   -.735E+00 -.735E+00 -.171E+01   0.193E-02 0.193E-02 0.193E-03
   -.337E+01 0.337E+01 -.528E+01   0.328E+01 -.328E+01 0.561E+01   0.735E+00 -.735E+00 0.171E+01   -.193E-02 0.193E-02 -.193E-03
   0.337E+01 -.337E+01 -.528E+01   -.328E+01 0.328E+01 0.561E+01   -.735E+00 0.735E+00 0.171E+01   0.193E-02 -.193E-02 -.193E-03
   -.158E-05 -.158E-05 -.528E-07   0.622E-14 0.444E-15 0.355E-14   0.000E+00 0.178E-14 -.222E-15   -.484E-12 0.183E-12 0.600E-13

 POSITION                                       TOTAL-FORCE (eV/Angst)
      5.66171      1.85966      1.95369         0.039106      0.039106      1.250201
      1.94239      5.74444      1.95369        -0.039106     -0.039106      1.250201
      1.85966      1.94239      1.89413         0.039106     -0.039106     -1.250201
      5.74444      5.66171      1.89413        -0.039106      0.039106     -1.250201
      3.83399      5.70437      0.00435         0.497649      0.032372     -0.026826
      3.77012      1.89973      0.00435        -0.497649     -0.032372     -0.026826
      5.70437      3.77012      3.84347         0.032372     -0.497649      0.026826
      1.89973      3.83399      3.84347        -0.032372      0.497649      0.026826
      7.57217      1.90232      3.84347        -0.497649      0.032372      0.026826
      0.03194      5.70179      3.84347         0.497649     -0.032372      0.026826
      5.70179      7.57217      0.00435        -0.032372     -0.497649     -0.026826
      1.90232      0.03194      0.00435         0.032372      0.497649     -0.026826
      5.62833      1.82628      0.13806         0.644410      0.644410     -2.042407
      1.97577      5.77783      0.13806        -0.644410     -0.644410     -2.042407
      1.82628      1.97577      3.70976         0.644410     -0.644410      2.042407
      5.77783      5.62833      3.70976        -0.644410      0.644410      2.042407
    total drift:                               -0.000002     -0.000002     -0.000000

  FREE ENERGIE OF THE ION-ELECTRON SYSTEM (eV)
  free  energy   TOTEN  =       -99.67184906 eV

  energy  without entropy=      -99.65520732  energy(sigma->0) =      -99.66352819

 d Force = 0.0000000E+00[ 0.000E+00, 0.000E+00]  d Energy = 0.1705439E-01-0.171E-01
 d Force = 0.0000000E+00[ 0.000E+00, 0.000E+00]  d Ewald  =-0.2146726E+02 0.215E+02

 stress matrix after NEB project (eV)
      1.44180      0.00000      0.00000
      0.00000      1.44180      0.00000
     -0.00000      0.00000     -3.27791
  FORCES: max atom, RMS     2.236505    1.329178
  FORCE total and by dimension    5.316713    2.042407
  Stress total and by dimension    3.860351    3.277912

 reached required accuracy - stopping structural energy minimisation
 writing wavefunctions

 total charge

[...]

 magnetization (x)

# of ion       s       p       d       tot
    1        0.000  -0.000   0.000   0.000
    2        0.000  -0.000   0.000   0.000
    3        0.000  -0.000   0.000   0.000
    4        0.000  -0.000   0.000   0.000
    5        0.000   0.010   0.000   0.010
    6        0.000   0.010   0.000   0.010
    7        0.000   0.009   0.000   0.010
    8        0.000   0.009   0.000   0.010
    9        0.000   0.010   0.000   0.010
   10        0.000   0.010   0.000   0.010
   11        0.000   0.009   0.000   0.010
   12        0.000   0.009   0.000   0.010
   13       -0.000   0.000   0.025   0.025
   14       -0.000   0.000   0.025   0.025
   15       -0.000   0.000   0.025   0.025
   16       -0.000   0.000   0.025   0.025
tot          0.003   0.077   0.101   0.181