 vasp.5.4.4.18Apr17-6-g9f103f2a35 (build Aug 21 2019 12:36:18) complex

 executed on IFC18.0.1.163_CrayMP date 2019.08.31  19:22:50

 INCAR:
 POTCAR:    PAW_PBE O 08Apr2002
 POTCAR:    PAW_PBE Ir 06Sep2000

 POTCAR:    PAW_PBE O 08Apr2002
   VRHFIN =O: s2p4

   TITEL  = PAW_PBE O 08Apr2002
   POMASS =   16.000; ZVAL   =    6.000    mass and valenz
   ENMAX  =  400.000; ENMIN  =  300.000 eV

 POTCAR:    PAW_PBE Ir 06Sep2000
   VRHFIN =Ir: s1d8

   TITEL  = PAW_PBE Ir 06Sep2000
   POMASS =  192.220; ZVAL   =    9.000    mass and valenz
   ENMAX  =  210.864; ENMIN  =  158.148 eV

 Optimization of the real space projectors (new method)

 maximal supplied QI-value         = 24.76
 optimisation between [QCUT,QGAM] = [ 12.38, 31.19] = [ 42.90,272.45] Ry
 Optimized for a Real-space Cutoff    0.88 Angstroem

   l    n(q)    QCUT    max X(q) W(low)/X(q) W(high)/X(q)  e(spline)
   0      8    12.378    20.381    0.23E-03    0.15E-03    0.14E-06
   0      8    12.378    15.268    0.25E-03    0.16E-03    0.15E-06
   1      8    12.378     5.964    0.24E-03    0.11E-03    0.16E-06
   1      8    12.378     5.382    0.21E-03    0.84E-04    0.13E-06
 Optimization of the real space projectors (new method)

 maximal supplied QI-value         = 14.36
 optimisation between [QCUT,QGAM] = [ 12.49, 31.31] = [ 43.72,274.50] Ry
 Optimized for a Real-space Cutoff    1.40 Angstroem

   l    n(q)    QCUT    max X(q) W(low)/X(q) W(high)/X(q)  e(spline)
   2     12    12.495   134.116    0.29E-03    0.64E-03    0.30E-04
   2     12    12.495   130.192    0.29E-03    0.64E-03    0.30E-04
   0     13    12.495    60.310    0.11E-03    0.19E-03    0.31E-04
   0     13    12.495    39.218    0.10E-03    0.18E-03    0.29E-04
   1     13    12.495    18.439    0.29E-03    0.21E-04    0.43E-04
   1     13    12.495    12.760    0.22E-03    0.16E-04    0.33E-04
  PAW_PBE O 08Apr2002                   :
  PAW_PBE Ir 06Sep2000                  :

 POSCAR:  O Ir
  positions in cartesian coordinates
 exchange correlation table for  LEXCH =        8
   RHO(1)=    0.500       N(1)  =     2000
   RHO(2)=  100.500       N(2)  =     4000

 VTST: version 3.2, (02/03/18)

 CHAIN: initializing optimizer

 OPT: Using VASP Conjugate-Gradient optimizer
 CHAIN: Read ICHAIN            0

 POSCAR:  O Ir
  positions in cartesian coordinates

 ion  position               nearest neighbor table
   1  0.750  0.250  0.500-  13 1.88  13 1.88
   2  0.250  0.750  0.500-  14 1.88  14 1.88
   3  0.250  0.250  0.500-  15 1.88  15 1.88
   4  0.750  0.750  0.500-  16 1.88  16 1.88
   5  0.500  0.750  0.000-  14 1.91  16 1.91
   6  0.500  0.250  0.000-  13 1.91  15 1.91
   7  0.750  0.500  0.000-  16 1.91  13 1.91
   8  0.250  0.500  0.000-  15 1.91  14 1.91
   9  0.000  0.250  0.000-  15 1.91  13 1.91
  10  1.000  0.750  0.000-  16 1.91  14 1.91
  11  0.750  0.000  0.000-  13 1.91  16 1.91
  12  0.250  1.000  0.000-  14 1.91  15 1.91
  13  0.750  0.250  0.000-   1 1.88   1 1.88  11 1.91   6 1.91   7 1.91   9 1.91
  14  0.250  0.750  0.000-   2 1.88   2 1.88  12 1.91   5 1.91   8 1.91  10 1.91
  15  0.250  0.250  0.000-   3 1.88   3 1.88   9 1.91   8 1.91  12 1.91   6 1.91
  16  0.750  0.750  0.000-   4 1.88   4 1.88  10 1.91   7 1.91  11 1.91   5 1.91

  LATTYP: Found a simple tetragonal cell.
 ALAT       =     7.6216900000
 C/A-ratio  =     0.4942407786

  Lattice vectors:

 A1 = (   7.6216900000,   0.0000000000,   0.0000000000)
 A2 = (   0.0000000000,   7.6216900000,   0.0000000000)
 A3 = (   0.0000000000,   0.0000000000,   3.7669500000)

Analysis of symmetry for initial positions (statically):
 Subroutine PRICEL returns:
 Original cell was already a primitive cell.

 Routine SETGRP: Setting up the symmetry group for a
 simple tetragonal supercell.

 Subroutine GETGRP returns: Found 16 space group operations
 (whereof  8 operations were pure point group operations)
 out of a pool of 16 trial point group operations.

The static configuration has the point symmetry C_4h.
 The point group associated with its full space group is D_4h.

Analysis of symmetry for dynamics (positions and initial velocities):
 Subroutine PRICEL returns:
 Original cell was already a primitive cell.

[...]

The dynamic configuration has the point symmetry C_4h.
 The point group associated with its full space group is D_4h.

Analysis of structural, dynamic, and magnetic symmetry:
 Subroutine PRICEL returns:
 Original cell was already a primitive cell.

 Routine SETGRP: Setting up the symmetry group for a
 simple tetragonal supercell.

 Subroutine GETGRP returns: Found 16 space group operations
 (whereof  8 operations were pure point group operations)
 out of a pool of 16 trial point group operations.

The magnetic configuration has the point symmetry C_4h.
 The point group associated with its full space group is D_4h.

 Subroutine INISYM returns: Found 16 space group operations
 (whereof  8 operations are pure point group operations),
 and found     1 'primitive' translations

 KPOINTS: KPOINTS created by Atomic Simulation Env

Automatic generation of k-mesh.
Space group operators:
 irot       det(A)        alpha          n_x          n_y          n_z        tau_x        tau_y        tau_z
    1     1.000000     0.000000     1.000000     0.000000     0.000000     0.000000     0.000000     0.000000
    2    -1.000000     0.000000     1.000000     0.000000     0.000000     0.000000     0.000000     0.000000
    3     1.000000    90.000000     0.000000     0.000000    -1.000000     0.000000     0.000000     0.000000
    4    -1.000000    90.000000     0.000000     0.000000    -1.000000     0.000000     0.000000     0.000000
    5     1.000000   180.000000     0.000000     0.000000     1.000000     0.000000     0.000000     0.000000
    6    -1.000000   180.000000     0.000000     0.000000     1.000000     0.000000     0.000000     0.000000
    7     1.000000    90.000000     0.000000     0.000000     1.000000     0.000000     0.000000     0.000000
    8    -1.000000    90.000000     0.000000     0.000000     1.000000     0.000000     0.000000     0.000000
    9     1.000000   180.000000     0.000000     1.000000     0.000000     0.500000     0.500000     0.000000
   10    -1.000000   180.000000     0.000000     1.000000     0.000000     0.500000     0.500000     0.000000
   11     1.000000   180.000000     0.707107     0.707107     0.000000     0.500000     0.500000     0.000000
   12    -1.000000   180.000000     0.707107     0.707107     0.000000     0.500000     0.500000     0.000000
   13     1.000000   180.000000     1.000000     0.000000     0.000000     0.500000     0.500000     0.000000
   14    -1.000000   180.000000     1.000000     0.000000     0.000000     0.500000     0.500000     0.000000
   15     1.000000   180.000000     0.707107    -0.707107     0.000000     0.500000     0.500000     0.000000
   16    -1.000000   180.000000     0.707107    -0.707107     0.000000     0.500000     0.500000     0.000000

 Subroutine IBZKPT returns following result:

 Found      9 irreducible k-points:

 Following reciprocal coordinates:
            Coordinates               Weight
  0.000000  0.000000  0.000000      1.000000
  0.500000  0.000000  0.000000      2.000000
  0.500000  0.500000  0.000000      1.000000
  0.000000  0.000000  0.200000      2.000000
  0.500000  0.000000  0.200000      4.000000
  0.500000  0.500000  0.200000      2.000000
  0.000000  0.000000  0.400000      2.000000
  0.500000  0.000000  0.400000      4.000000
  0.500000  0.500000  0.400000      2.000000

 Following cartesian coordinates:
            Coordinates               Weight
  0.000000  0.000000  0.000000      1.000000
  0.065602  0.000000  0.000000      2.000000
  0.065602  0.065602  0.000000      1.000000
  0.000000  0.000000  0.053093      2.000000
  0.065602  0.000000  0.053093      4.000000
  0.065602  0.065602  0.053093      2.000000
  0.000000  0.000000  0.106187      2.000000
  0.065602  0.000000  0.106187      4.000000
  0.065602  0.065602  0.106187      2.000000

 SYSTEM =  unknown system
 POSCAR =   O Ir

 Startparameter for this run:
   NWRITE =      2    write-flag & timer
   PREC   = high      normal or accurate (medium, high low for compatibility)
   ISTART =      0    job   : 0-new  1-cont  2-samecut
   ICHARG =      2    charge: 1-file 2-atom 10-const
   ISPIN  =      2    spin polarized calculation?
   LNONCOLLINEAR =      F non collinear calculations
   LSORBIT =      F    spin-orbit coupling
   INIWAV =      1    electr: 0-lowe 1-rand  2-diag
   LASPH  =      T    aspherical Exc in radial PAW
   METAGGA=      F    non-selfconsistent MetaGGA calc.

 Electronic Relaxation 1
   ENCUT  =  600.0 eV  44.10 Ry    6.64 a.u.  15.22 15.22  7.52*2*pi/ulx,y,z
   ENINI  =  600.0     initial cutoff
   ENAUG  =  605.4 eV  augmentation charge cutoff
   NELM   =    220;   NELMIN=  2; NELMDL= -5     # of ELM steps
   EDIFF  = 0.1E-05   stopping-criterion for ELM
   LREAL  =      T    real-space projection
   NLSPLINE    = F    spline interpolate recip. space projectors
   LCOMPAT=      F    compatible to vasp.4.4
   GGA_COMPAT  = T    GGA compatible to vasp.4.4-vasp.4.6
   LMAXPAW     = -100 max onsite density
   LMAXMIX     =    6 max onsite mixed and CHGCAR
   VOSKOWN=      0    Vosko Wilk Nusair interpolation
   ROPT   =   -0.00040  -0.00040
 Ionic relaxation
   EDIFFG = 0.1E-02   stopping-criterion for IOM
   NSW    =    150    number of steps for IOM
   NBLOCK =      1;   KBLOCK =    150    inner block; outer block
   IBRION =      2    ionic relax: 0-MD 1-quasi-New 2-CG
   NFREE  =      1    steps in history (QN), initial steepest desc. (CG)
   ISIF   =      2    stress and relaxation
   IWAVPR =     11    prediction:  0-non 1-charg 2-wave 3-comb
   ISYM   =      2    0-nonsym 1-usesym 2-fastsym
   LCORR  =      T    Harris-Foulkes like correction to forces

   POTIM  = 0.0300    time-step for ionic-motion
   TEIN   =    0.0    initial temperature
   TEBEG  =    0.0;   TEEND  =   0.0 temperature during run
   SMASS  =  -3.00    Nose mass-parameter (am)
   estimated Nose-frequenzy (Omega)   =  0.10E-29 period in steps =****** mass=  -0.133E-26a.u.
   SCALEE = 1.0000    scale energy and forces
   NPACO  =    256;   APACO  = 16.0  distance and # of slots for P.C.
   PSTRESS=    0.0 pullay stress

  Mass of Ions in am
   POMASS =  16.00192.22
  Ionic Valenz
   ZVAL   =   6.00  9.00
  Atomic Wigner-Seitz radii
  virtual crystal weights
   VCA    =   1.00  1.00
   NELECT =     108.0000    total number of electrons
   NUPDOWN=      -1.0000    fix difference up-down

 DOS related values:
   EMIN   =  10.00;   EMAX   =-10.00  energy-range for DOS
   EFERMI =   0.00
   ISMEAR =     0;   SIGMA  =   0.05  broadening in eV -4-tet -1-fermi 0-gaus

 Electronic relaxation 2 (details)
   IALGO  =     68    algorithm
   LDIAG  =      T    sub-space diagonalisation (order eigenvalues)
   LSUBROT=      F    optimize rotation matrix (better conditioning)
   TURBO    =      0    0=normal 1=particle mesh
   IRESTART =      0    0=no restart 2=restart with 2 vectors
   NREBOOT  =      0    no. of reboots
   NMIN     =      0    reboot dimension
   EREF     =   0.00    reference energy to select bands
[...]
 augmentation part      108.0000000 magnetization      16.0000000

 Free energy of the ion-electron system (eV)
  alpha Z        PSCENC =       387.27776845
  Ewald energy   TEWEN  =     -5258.21292263
  -Hartree energ DENC   =     -2400.66155702
  -exchange      EXHF   =         0.00000000
  -V(xc)+E(xc)   XCENC  =       264.58869682
  PAW double counting   =      6362.12184073    -6222.39335305
  entropy T*S    EENTRO =        -0.00574228
  eigenvalues    EBANDS =       649.06355594
  atomic energy  EATOM  =      7429.07371459
  Solvation  Ediel_sol  =         0.00000000
  free energy    TOTEN  =      1210.85200155 eV

  energy without entropy =     1210.85774383  energy(sigma->0) =     1210.85487269

[...]

 eigenvalue-minimisations  :  2628
 total energy-change (2. order) :-0.1179443E+04  (-0.1119547E+04)
 number of electron     108.0000000 magnetization      16.0000000
 augmentation part      108.0000000 magnetization      16.0000000

[...]

 Broyden mixing:
  rms(total) = 0.10286E+02    rms(broyden)= 0.10286E+02
  rms(prec ) = 0.11387E+02
  weight for this iteration     100.00

[...]

 eigenvalues of (default mixing * dielectric matrix)
  average eigenvalue GAMMA=   1.8150
  1.8150

[...]

 eigenvalue-minimisations  :  2408
 total energy-change (2. order) :-0.7475351E-05  (-0.1339013E-05)
 number of electron     107.9999769 magnetization       0.8930962
 augmentation part       17.2675920 magnetization       0.3865589

 Broyden mixing:
  rms(total) = 0.12774E-01    rms(broyden)= 0.12773E-01
  rms(prec ) = 0.12815E-01
  weight for this iteration     100.00

 eigenvalues of (default mixing * dielectric matrix)
  average eigenvalue GAMMA=   3.7727
 36.1042 15.2302 11.3264 11.3264  9.9700  4.7335  4.7335  7.0729  7.0729  5.6016
  5.3168  5.3168  4.5558  3.1170  3.1170  1.4551  1.4551  1.8800  1.8800  0.4284
  0.4284  0.2464  1.0616  1.0616  1.2965  1.1969  1.1969  1.0443  1.0443  0.9354
  0.9354  0.6560  0.7682  0.7682  0.7855  0.7855  0.8726  0.8726  0.7627  0.7937
  1.0530  0.9704  0.9972

[...]

--------------------------------------- Iteration      1(  54)  ---------------------------------------

 eigenvalue-minimisations  :  1356
 total energy-change (2. order) : 0.5247985E-06  (-0.1005664E-06)
 number of electron     107.9999769 magnetization       0.8930962
 augmentation part       17.2675920 magnetization       0.3865589

 Free energy of the ion-electron system (eV)
  alpha Z        PSCENC =       387.27776845
  Ewald energy   TEWEN  =     -5258.21292263
  -Hartree energ DENC   =     -2433.59196719
  -exchange      EXHF   =         0.00000000
  -V(xc)+E(xc)   XCENC  =       271.31127668
  PAW double counting   =     10087.17528970    -9968.67898921
  entropy T*S    EENTRO =        -0.01795128
  eigenvalues    EBANDS =      -614.70807387
  atomic energy  EATOM  =      7429.07371459
  Solvation  Ediel_sol  =         0.00000000
  free energy    TOTEN  =      -100.37185476 eV

  energy without entropy =     -100.35390348  energy(sigma->0) =     -100.36287912

 average (electrostatic) potential at core
  the test charge radii are     0.7215  1.2793
  (the norm of the test charge is              1.0000)
       1 -74.2934       2 -74.2934       3 -74.2934       4 -74.2934       5 -73.6164
       6 -73.6164       7 -73.6164       8 -73.6164       9 -73.6164      10 -73.6164
      11 -73.6164      12 -73.6164      13 -59.4628      14 -59.4628      15 -59.4628
      16 -59.4628

 E-fermi :   1.7923     XC(G=0):  -9.6513     alpha+bet : -8.1670

 spin component 1

 k-point     1 :       0.0000    0.0000    0.0000
  band No.  band energies     occupation
      1     -18.0594      1.00000
      2     -17.8530      1.00000
      3     -17.8530      1.00000
      4     -17.7014      1.00000
      5     -17.1041      1.00000
      6     -16.9554      1.00000
      7     -16.9554      1.00000
      8     -16.7888      1.00000
      9     -15.9403      1.00000
     10     -15.9403      1.00000
     11     -15.9009      1.00000
     12     -15.9009      1.00000
     13      -7.5370      1.00000
     14      -7.3669      1.00000
     15      -7.3669      1.00000
     16      -7.1178      1.00000
     17      -5.2889      1.00000
     18      -3.8799      1.00000
     19      -3.8799      1.00000
     20      -3.8420      1.00000
     21      -3.8420      1.00000
     22      -3.8294      1.00000
     23      -3.8294      1.00000
     24      -3.2709      1.00000
     25      -3.0585      1.00000
     26      -3.0585      1.00000
     27      -2.9671      1.00000
     28      -2.9671      1.00000
     29      -2.7083      1.00000
     30      -2.7083      1.00000
     31      -2.6760      1.00000
     32      -2.0356      1.00000
     33      -2.0356      1.00000
     34      -2.0122      1.00000
     35      -2.0122      1.00000
     36      -1.9437      1.00000
     37      -1.7091      1.00000
     38      -1.7091      1.00000
     39      -1.3584      1.00000
     40      -1.3584      1.00000
     41      -0.5732      1.00000
     42      -0.5732      1.00000
     43      -0.5306      1.00000
     44      -0.5306      1.00000
     45      -0.4925      1.00000
     46      -0.4925      1.00000
     47      -0.2503      1.00000
     48      -0.1571      1.00000
     49      -0.1571      1.00000
     50      -0.1099      1.00000
     51      -0.1099      1.00000
     52      -0.0929      1.00000
     53       1.0006      1.00000
     54       1.6501      0.99997
     55       1.6669      0.99981
     56       1.6676      0.99979
     57       1.6676      0.99979
     58       2.3880      0.00000
     59       2.3880      0.00000
     60       2.3983      0.00000
     61       2.3983      0.00000
     62       2.4165      0.00000
     63       2.4165      0.00000
     64       2.9027      0.00000
     65       3.4625      0.00000
     66       5.4138      0.00000
     67       5.4138      0.00000
     68       7.8848      0.00000
     69       9.0654      0.00000
     70      10.8545      0.00000
     71      10.8545      0.00000
     72      11.9061      0.00000

[...]

 spin component 2

[...]

 k-point     9 :       0.5000    0.5000    0.4000
  band No.  band energies     occupation
      1     -16.7669      1.00000
      2     -16.7669      1.00000
      3     -16.7669      1.00000
      4     -16.7669      1.00000
      5     -16.5046      1.00000
      6     -16.5046      1.00000
      7     -16.5046      1.00000
      8     -16.5046      1.00000
      9     -16.3144      1.00000
     10     -16.3144      1.00000
     11     -16.3144      1.00000
     12     -16.3144      1.00000
     13      -7.4826      1.00000
     14      -7.4826      1.00000
     15      -7.4826      1.00000
     16      -7.4826      1.00000
     17      -5.4999      1.00000
     18      -5.4999      1.00000
     19      -5.4999      1.00000
     20      -5.4999      1.00000
     21      -4.9775      1.00000
     22      -4.9775      1.00000
     23      -4.9775      1.00000
     24      -4.9775      1.00000
     25      -4.7880      1.00000
     26      -4.7880      1.00000
     27      -4.7880      1.00000
     28      -4.7880      1.00000
     29      -4.7456      1.00000
     30      -4.7456      1.00000
     31      -4.7456      1.00000
     32      -4.7456      1.00000
     33      -3.9071      1.00000
     34      -3.9071      1.00000
     35      -3.9071      1.00000
     36      -3.9071      1.00000
     37      -0.0120      1.00000
     38      -0.0120      1.00000
     39      -0.0120      1.00000
     40      -0.0120      1.00000
     41       0.2664      1.00000
     42       0.2664      1.00000
     43       0.2664      1.00000
     44       0.2664      1.00000
     45       0.4021      1.00000
     46       0.4021      1.00000
     47       0.4021      1.00000
     48       0.4021      1.00000
     49       1.7658      0.77381
     50       1.7658      0.77381
     51       1.7658      0.77381
     52       1.7658      0.77381
     53       2.2212      0.00000
     54       2.2212      0.00000
     55       2.2212      0.00000
     56       2.2212      0.00000
     57       2.3361      0.00000
     58       2.3361      0.00000
     59       2.3361      0.00000
     60       2.3361      0.00000
     61       6.0048      0.00000
     62       6.0048      0.00000
     63       6.0048      0.00000
     64       6.0048      0.00000
     65       7.5245      0.00000
     66       7.5245      0.00000
     67       7.5245      0.00000
     68       7.5245      0.00000
     69      11.0559      0.00000
     70      11.0559      0.00000
     71      11.0559      0.00000
     72      11.0559      0.00000

 soft charge-density along one line, spin component           1
         0         1         2         3         4         5         6         7         8         9
 total charge-density along one line

 soft charge-density along one line, spin component           2
         0         1         2         3         4         5         6         7         8         9
 total charge-density along one line

------------------------ aborting loop because EDIFF is reached ----------------------------------------

 total charge

# of ion       s       p       d       tot
    1        1.566   3.421   0.000   4.987
    2        1.566   3.421   0.000   4.987
    3        1.566   3.421   0.000   4.987
    4        1.566   3.421   0.000   4.987
    5        1.567   3.542   0.000   5.108
    6        1.567   3.542   0.000   5.108
    7        1.551   3.321   0.000   4.872
    8        1.551   3.321   0.000   4.872
    9        1.567   3.542   0.000   5.108
   10        1.567   3.542   0.000   5.108
   11        1.551   3.321   0.000   4.872
   12        1.551   3.321   0.000   4.872
   13        0.672   1.088   6.627   8.388
   14        0.672   1.088   6.627   8.388
   15        0.672   1.088   6.627   8.388
   16        0.672   1.088   6.627   8.388
tot         21.423  45.489  26.510  93.421

 magnetization (x)

[...]

  FORCE on cell =-STRESS in cart. coord.  units (eV):
  Direction    XX          YY          ZZ          XY          YZ          ZX
  Alpha Z   387.27777   387.27777   387.27777
  Ewald   -1789.03273 -1789.03273 -1680.16429    -0.00000    -0.00000    -0.00000
  Hartree   800.39842   800.39842   832.81591    -0.00000    -0.00000    -0.00000
  E(xc)    -521.64561  -521.64561  -521.46272     0.00000    -0.00000     0.00000
  Local    -855.24405  -855.24405  -981.32772    -0.00000     0.00000    -0.00000
  n-local  -270.63226  -289.00860  -279.92281     0.00000     0.00000     0.00000
  augment   232.57271   232.57271   228.71948     0.00000     0.00000    -0.00000
  Kinetic  2021.90808  2029.12612  2014.07538     0.00000     0.00000    -0.00000
  Fock        0.00000     0.00000     0.00000     0.00000     0.00000     0.00000
  Total       0.02318     0.02318     0.01099     0.00000     0.00000     0.00000
  in kB       0.16969     0.16969     0.08046     0.00000     0.00000     0.00000

 VOLUME and BASIS-vectors are now :
  energy-cutoff  :      600.00
  volume of cell :      218.82
      direct lattice vectors                 reciprocal lattice vectors
     7.621690000  0.000000000  0.000000000     0.131204497  0.000000000  0.000000000
     0.000000000  7.621690000  0.000000000     0.000000000  0.131204497  0.000000000
     0.000000000  0.000000000  3.766950000     0.000000000  0.000000000  0.265466757

  length of vectors
     7.621690000  7.621690000  3.766950000     0.131204497  0.131204497  0.265466757

 FORCES acting on ions
    electron-ion (+dipol)            ewald-force                    non-local-force                 convergence-correction
   -.102E-01 -.102E-01 0.206E-06   0.989E-02 0.989E-02 -.970E-14   0.460E-03 0.460E-03 0.132E-23   0.734E-05 0.734E-05 -.713E-13
   0.102E-01 0.102E-01 -.206E-06   -.989E-02 -.989E-02 -.941E-14   -.460E-03 -.460E-03 0.157E-23   -.734E-05 -.734E-05 -.889E-13
   -.102E-01 0.102E-01 -.236E-12   0.989E-02 -.989E-02 -.977E-14   0.460E-03 -.460E-03 0.731E-24   0.734E-05 -.734E-05 -.101E-12
   0.102E-01 -.102E-01 0.919E-11   -.989E-02 0.989E-02 -.969E-14   -.460E-03 0.460E-03 -.107E-23   -.734E-05 0.734E-05 -.773E-13
   -.459E-01 0.157E-03 -.165E-06   0.554E-01 -.169E-05 0.238E-14   -.633E-02 0.448E-04 -.513E-24   -.280E-04 -.196E-03 0.875E-13
   0.459E-01 -.157E-03 0.165E-06   -.554E-01 0.169E-05 0.229E-14   0.633E-02 -.448E-04 0.558E-24   0.280E-04 0.196E-03 0.778E-13
   0.157E-03 0.459E-01 0.165E-06   -.169E-05 -.554E-01 0.364E-14   0.448E-04 0.633E-02 -.421E-24   -.196E-03 0.280E-04 0.886E-13
   -.157E-03 -.459E-01 -.165E-06   0.169E-05 0.554E-01 0.366E-14   -.448E-04 -.633E-02 -.858E-24   0.196E-03 -.280E-04 0.371E-13
   0.459E-01 0.157E-03 0.165E-06   -.554E-01 -.169E-05 0.149E-14   0.633E-02 0.448E-04 0.517E-24   0.280E-04 -.196E-03 0.104E-12
   -.459E-01 -.157E-03 -.165E-06   0.554E-01 0.169E-05 0.151E-14   -.633E-02 -.448E-04 -.430E-24   -.280E-04 0.196E-03 0.105E-12
   -.157E-03 0.459E-01 0.165E-06   0.169E-05 -.554E-01 0.256E-14   -.448E-04 0.633E-02 0.139E-23   0.196E-03 0.280E-04 0.538E-13
   0.157E-03 -.459E-01 -.165E-06   -.169E-05 0.554E-01 0.306E-14   0.448E-04 -.633E-02 0.542E-24   -.196E-03 -.280E-04 0.755E-13
   -.487E-01 -.487E-01 -.574E-09   0.486E-01 0.486E-01 0.752E-14   0.262E-02 0.262E-02 -.554E-23   -.170E-04 -.170E-04 0.118E-12
   0.487E-01 0.487E-01 0.576E-09   -.486E-01 -.486E-01 0.751E-14   -.262E-02 -.262E-02 -.492E-23   0.170E-04 0.170E-04 0.134E-12
   -.487E-01 0.487E-01 0.150E-11   0.486E-01 -.486E-01 0.920E-14   0.262E-02 -.262E-02 0.429E-23   -.170E-04 0.170E-04 0.136E-12
   0.487E-01 -.487E-01 -.360E-11   -.486E-01 0.486E-01 0.921E-14   -.262E-02 0.262E-02 0.436E-23   0.170E-04 -.170E-04 0.128E-12
   0.392E-11 -.361E-11 0.153E-10   -.680E-13 0.328E-13 0.155E-13   0.867E-18 0.000E+00 0.152E-23   -.437E-12 0.346E-12 0.806E-12

 POSITION                                       TOTAL-FORCE (eV/Angst)
      5.71634      1.90550      1.88348         0.000136      0.000136     -0.000000
      1.90535      5.71619      1.88348        -0.000136     -0.000136      0.000000
      1.90550      1.90535      1.88348         0.000136     -0.000136      0.000000
      5.71619      5.71634      1.88348        -0.000136      0.000136     -0.000000
      3.81069      5.71627      0.00000         0.003131      0.000004      0.000000
      3.81100      1.90542      0.00000        -0.003131     -0.000004     -0.000000
      5.71627      3.81100      0.00000         0.000004     -0.003131     -0.000000
      1.90542      3.81069      0.00000        -0.000004      0.003131      0.000000
      0.00015      1.90542      0.00000        -0.003131      0.000004     -0.000000
      7.62154      5.71627      0.00000         0.003131     -0.000004      0.000000
      5.71627      0.00015      0.00000        -0.000004     -0.003131      0.000000
      1.90542      7.62154      0.00000         0.000004      0.003131     -0.000000
      5.71634      1.90550      0.00000         0.002465      0.002465      0.000000
      1.90535      5.71619      0.00000        -0.002465     -0.002465      0.000000
      1.90550      1.90535      0.00000         0.002465     -0.002465      0.000000
      5.71619      5.71634      0.00000        -0.002465      0.002465      0.000000
    total drift:                                0.000000     -0.000000      0.000000

  FREE ENERGIE OF THE ION-ELECTRON SYSTEM (eV)
  free  energy   TOTEN  =      -100.37185476 eV

  energy  without entropy=     -100.35390348  energy(sigma->0) =     -100.36287912

 stress matrix after NEB project (eV)
      0.02318      0.00000      0.00000
      0.00000      0.02318      0.00000
     -0.00000      0.00000      0.01099
  FORCES: max atom, RMS     0.003486    0.002820
  FORCE total and by dimension    0.011278    0.003131
  Stress total and by dimension    0.034569    0.023176

 reached required accuracy - stopping structural energy minimisation
 writing wavefunctions

 total charge

[...]

 magnetization (x)

# of ion       s       p       d       tot
    1        0.004  -0.004   0.000  -0.000
    2        0.004  -0.004   0.000  -0.000
    3        0.004  -0.004   0.000  -0.000
    4        0.004  -0.004   0.000  -0.000
    5        0.004   0.018   0.000   0.021
    6        0.004   0.018   0.000   0.021
    7        0.006   0.017   0.000   0.023
    8        0.006   0.017   0.000   0.023
    9        0.004   0.018   0.000   0.021
   10        0.004   0.018   0.000   0.021
   11        0.006   0.017   0.000   0.023
   12        0.006   0.017   0.000   0.023
   13        0.000  -0.000   0.161   0.161
   14        0.000  -0.000   0.161   0.161
   15        0.000  -0.000   0.161   0.161
   16        0.000  -0.000   0.161   0.161
tot          0.056   0.121   0.645   0.821