 vasp.5.4.4.18Apr17-6-g9f103f2a35 (build Aug 21 2019 12:36:18) complex

 executed on IFC18.0.1.163_CrayMP date 2019.08.29  00:23:00

 INCAR:
 POTCAR:    PAW_PBE O 08Apr2002
 POTCAR:    PAW_PBE Ir 06Sep2000

 POTCAR:    PAW_PBE O 08Apr2002
   VRHFIN =O: s2p4

   TITEL  = PAW_PBE O 08Apr2002
   POMASS =   16.000; ZVAL   =    6.000    mass and valenz
   ENMAX  =  400.000; ENMIN  =  300.000 eV

 POTCAR:    PAW_PBE Ir 06Sep2000
   VRHFIN =Ir: s1d8

   TITEL  = PAW_PBE Ir 06Sep2000
   POMASS =  192.220; ZVAL   =    9.000    mass and valenz
   ENMAX  =  210.864; ENMIN  =  158.148 eV

 Optimization of the real space projectors (new method)

 maximal supplied QI-value         = 24.76
 optimisation between [QCUT,QGAM] = [ 12.38, 31.19] = [ 42.90,272.45] Ry
 Optimized for a Real-space Cutoff    0.88 Angstroem

   l    n(q)    QCUT    max X(q) W(low)/X(q) W(high)/X(q)  e(spline)
   0      8    12.378    20.381    0.23E-03    0.15E-03    0.14E-06
   0      8    12.378    15.268    0.25E-03    0.16E-03    0.15E-06
   1      8    12.378     5.964    0.24E-03    0.11E-03    0.16E-06
   1      8    12.378     5.382    0.21E-03    0.84E-04    0.13E-06
 Optimization of the real space projectors (new method)

 maximal supplied QI-value         = 14.36
 optimisation between [QCUT,QGAM] = [ 12.49, 31.31] = [ 43.72,274.50] Ry
 Optimized for a Real-space Cutoff    1.40 Angstroem

   l    n(q)    QCUT    max X(q) W(low)/X(q) W(high)/X(q)  e(spline)
   2     12    12.495   134.116    0.29E-03    0.64E-03    0.30E-04
   2     12    12.495   130.192    0.29E-03    0.64E-03    0.30E-04
   0     13    12.495    60.310    0.11E-03    0.19E-03    0.31E-04
   0     13    12.495    39.218    0.10E-03    0.18E-03    0.29E-04
   1     13    12.495    18.439    0.29E-03    0.21E-04    0.43E-04
   1     13    12.495    12.760    0.22E-03    0.16E-04    0.33E-04
  PAW_PBE O 08Apr2002                   :
  PAW_PBE Ir 06Sep2000                  :

 POSCAR:  O Ir
  positions in cartesian coordinates
 exchange correlation table for  LEXCH =        8
   RHO(1)=    0.500       N(1)  =     2000
   RHO(2)=  100.500       N(2)  =     4000

 VTST: version 3.2, (02/03/18)

 CHAIN: initializing optimizer

 OPT: Using VASP Conjugate-Gradient optimizer
 CHAIN: Read ICHAIN            0

 POSCAR:  O Ir
  positions in cartesian coordinates

 ion  position               nearest neighbor table
   1  0.998  0.244  0.250-  15 1.86  13 2.02
   2  0.002  0.756  0.750-  16 1.86  14 2.02
   3  0.002  0.744  0.250-  13 1.86  15 2.02
   4  0.998  0.256  0.750-  14 1.86  16 2.02
   5  0.507  0.993  0.250-  13 1.85  13 2.03
   6  0.493  0.007  0.750-  14 1.85  14 2.03
   7  0.493  0.493  0.250-  15 1.85  15 2.03
   8  0.507  0.507  0.750-  16 1.85  16 2.03
   9  0.000  0.000  0.000-  13 1.93  14 1.93
  10  0.000  0.000  0.500-  13 1.93  14 1.93
  11  0.000  0.500  0.500-  15 1.93  16 1.93
  12  0.000  0.500  0.000-  15 1.93  16 1.93
  13  0.030  0.984  0.250-   5 1.85   3 1.86   9 1.93  10 1.93   1 2.02   5 2.03
  14  0.970  0.016  0.750-   6 1.85   4 1.86   9 1.93  10 1.93   2 2.02   6 2.03
  15  0.970  0.484  0.250-   7 1.85   1 1.86  11 1.93  12 1.93   3 2.02   7 2.03
  16  0.030  0.516  0.750-   8 1.85   2 1.86  11 1.93  12 1.93   4 2.02   8 2.03

  LATTYP: Found a simple orthorhombic cell.
 ALAT       =     3.8849500000
 B/A-ratio  =     1.9790962561
 C/A-ratio  =     1.9948133181

  Lattice vectors:

 A1 = (  -3.8849500000,   0.0000000000,   0.0000000000)
 A2 = (   0.0000000000,   0.0000000000,  -7.6886900000)
 A3 = (   0.0000000000,  -7.7497500000,   0.0000000000)

Analysis of symmetry for initial positions (statically):
 Subroutine PRICEL returns:
 Original cell was already a primitive cell.

 Routine SETGRP: Setting up the symmetry group for a
 simple orthorhombic supercell.

 Subroutine GETGRP returns: Found  8 space group operations
 (whereof  2 operations were pure point group operations)
 out of a pool of  8 trial point group operations.

The static configuration has the point symmetry S_2 .
 The point group associated with its full space group is D_2h.

Analysis of symmetry for dynamics (positions and initial velocities):
 Subroutine PRICEL returns:
 Original cell was already a primitive cell.

[...]

The dynamic configuration has the point symmetry S_2 .
 The point group associated with its full space group is D_2h.

Analysis of structural, dynamic, and magnetic symmetry:
 Subroutine PRICEL returns:
 Original cell was already a primitive cell.

 Routine SETGRP: Setting up the symmetry group for a
 simple orthorhombic supercell.

 Subroutine GETGRP returns: Found  8 space group operations
 (whereof  2 operations were pure point group operations)
 out of a pool of  8 trial point group operations.

The magnetic configuration has the point symmetry S_2 .
 The point group associated with its full space group is D_2h.

 Subroutine INISYM returns: Found  8 space group operations
 (whereof  2 operations are pure point group operations),
 and found     1 'primitive' translations

 KPOINTS: KPOINTS created by Atomic Simulation Env

Automatic generation of k-mesh.
Space group operators:
 irot       det(A)        alpha          n_x          n_y          n_z        tau_x        tau_y        tau_z
    1     1.000000     0.000000     1.000000     0.000000     0.000000     0.000000     0.000000     0.000000
    2    -1.000000     0.000000     1.000000     0.000000     0.000000     0.000000     0.000000     0.000000
    3     1.000000   179.999999     0.000000     1.000000     0.000000    -0.000000    -0.500000    -0.500000
    4    -1.000000   179.999999     0.000000     1.000000     0.000000     0.000000    -0.500000    -0.500000
    5     1.000000   180.000000     0.000000     0.000000     1.000000    -0.000000     0.000000    -0.500000
    6    -1.000000   180.000000     0.000000     0.000000     1.000000     0.000000     0.000000    -0.500000
    7     1.000000   180.000000     1.000000     0.000000     0.000000     0.000000    -0.500000     0.000000
    8    -1.000000   180.000000     1.000000     0.000000     0.000000    -0.000000    -0.500000     0.000000

 Subroutine IBZKPT returns following result:

 Found     12 irreducible k-points:

 Following reciprocal coordinates:
            Coordinates               Weight
  0.000000  0.000000  0.000000      1.000000
  0.200000  0.000000  0.000000      2.000000
  0.400000  0.000000  0.000000      2.000000
  0.000000  0.500000  0.000000      1.000000
  0.200000  0.500000  0.000000      2.000000
  0.400000  0.500000  0.000000      2.000000
  0.000000  0.000000  0.500000      1.000000
  0.200000  0.000000  0.500000      2.000000
  0.400000  0.000000  0.500000      2.000000
  0.000000  0.500000  0.500000      1.000000
  0.200000  0.500000  0.500000      2.000000
  0.400000  0.500000  0.500000      2.000000

 Following cartesian coordinates:
            Coordinates               Weight
  0.000000  0.000000  0.000000      1.000000
  0.051481  0.000000  0.000000      2.000000
  0.102961  0.000000  0.000000      2.000000
  0.000000  0.064518  0.000000      1.000000
  0.051481  0.064518  0.000000      2.000000
  0.102961  0.064518  0.000000      2.000000
  0.000000  0.000000  0.065031      1.000000
  0.051481  0.000000  0.065031      2.000000
  0.102961  0.000000  0.065031      2.000000
  0.000000  0.064518  0.065031      1.000000
  0.051481  0.064518  0.065031      2.000000
  0.102961  0.064518  0.065031      2.000000

 SYSTEM =  unknown system
 POSCAR =   O Ir

 Startparameter for this run:
   NWRITE =      2    write-flag & timer
   PREC   = high      normal or accurate (medium, high low for compatibility)
   ISTART =      0    job   : 0-new  1-cont  2-samecut
   ICHARG =      2    charge: 1-file 2-atom 10-const
   ISPIN  =      2    spin polarized calculation?
   LNONCOLLINEAR =      F non collinear calculations
   LSORBIT =      F    spin-orbit coupling
   INIWAV =      1    electr: 0-lowe 1-rand  2-diag
   LASPH  =      T    aspherical Exc in radial PAW
   METAGGA=      F    non-selfconsistent MetaGGA calc.

 Electronic Relaxation 1
   ENCUT  =  600.0 eV  44.10 Ry    6.64 a.u.   7.76 15.48 15.36*2*pi/ulx,y,z
   ENINI  =  600.0     initial cutoff
   ENAUG  =  605.4 eV  augmentation charge cutoff
   NELM   =    220;   NELMIN=  2; NELMDL= -5     # of ELM steps
   EDIFF  = 0.1E-05   stopping-criterion for ELM
   LREAL  =      T    real-space projection
   NLSPLINE    = F    spline interpolate recip. space projectors
   LCOMPAT=      F    compatible to vasp.4.4
   GGA_COMPAT  = T    GGA compatible to vasp.4.4-vasp.4.6
   LMAXPAW     = -100 max onsite density
   LMAXMIX     =    6 max onsite mixed and CHGCAR
   VOSKOWN=      0    Vosko Wilk Nusair interpolation
   ROPT   =   -0.00040  -0.00040
 Ionic relaxation
   EDIFFG = 0.5E-02   stopping-criterion for IOM
   NSW    =    150    number of steps for IOM
   NBLOCK =      1;   KBLOCK =    150    inner block; outer block
   IBRION =      2    ionic relax: 0-MD 1-quasi-New 2-CG
   NFREE  =      1    steps in history (QN), initial steepest desc. (CG)
   ISIF   =      7    stress and relaxation
   IWAVPR =     11    prediction:  0-non 1-charg 2-wave 3-comb
   ISYM   =      2    0-nonsym 1-usesym 2-fastsym
   LCORR  =      T    Harris-Foulkes like correction to forces

   POTIM  = 0.0300    time-step for ionic-motion
   TEIN   =    0.0    initial temperature
   TEBEG  =    0.0;   TEEND  =   0.0 temperature during run
   SMASS  =  -3.00    Nose mass-parameter (am)
   estimated Nose-frequenzy (Omega)   =  0.10E-29 period in steps =****** mass=  -0.345E-27a.u.
   SCALEE = 1.0000    scale energy and forces
   NPACO  =    256;   APACO  = 16.0  distance and # of slots for P.C.
   PSTRESS=    0.0 pullay stress

  Mass of Ions in am
   POMASS =  16.00192.22
  Ionic Valenz
   ZVAL   =   6.00  9.00
  Atomic Wigner-Seitz radii
  virtual crystal weights
   VCA    =   1.00  1.00
   NELECT =     108.0000    total number of electrons
   NUPDOWN=      -1.0000    fix difference up-down

 DOS related values:
   EMIN   =  10.00;   EMAX   =-10.00  energy-range for DOS
   EFERMI =   0.00
   ISMEAR =     0;   SIGMA  =   0.05  broadening in eV -4-tet -1-fermi 0-gaus

 Electronic relaxation 2 (details)
   IALGO  =     68    algorithm
   LDIAG  =      T    sub-space diagonalisation (order eigenvalues)
   LSUBROT=      F    optimize rotation matrix (better conditioning)
   TURBO    =      0    0=normal 1=particle mesh
   IRESTART =      0    0=no restart 2=restart with 2 vectors
   NREBOOT  =      0    no. of reboots
   NMIN     =      0    reboot dimension
   EREF     =   0.00    reference energy to select bands
   IMIX   =      4    mixing-type and parameters
     AMIX     =   0.20;   BMIX     =  0.00
     AMIX_MAG =   0.10;   BMIX_MAG =  0.00
     AMIN     =   0.10
     WC   =   100.;   INIMIX=   0;  MIXPRE=   1;  MAXMIX= -45

 Intra band minimization:
   WEIMIN = 0.0010     energy-eigenvalue tresh-hold
   EBREAK =  0.35E-08  absolut break condition
   DEPER  =   0.30     relativ break condition

   TIME   =   0.40     timestep for ELM

  volume/ion in A,a.u.               =      14.47        97.63
  Fermi-wavevector in a.u.,A,eV,Ry     =   1.269719  2.399421 21.935124  1.612186
[...]
   -.258E+02 -.568E+01 0.217E-04   0.355E+02 0.831E+01 -.180E-13   -.897E+01 -.267E+01 0.386E-23   0.154E-02 0.192E-02 -.148E-13
   0.258E+02 0.568E+01 -.217E-04   -.355E+02 -.831E+01 0.186E-13   0.897E+01 0.267E+01 0.413E-23   -.154E-02 -.192E-02 0.124E-13
   0.258E+02 -.568E+01 -.991E-05   -.355E+02 0.831E+01 0.119E-13   0.897E+01 -.267E+01 -.375E-23   -.154E-02 0.192E-02 -.222E-13
   -.258E+02 0.568E+01 0.991E-05   0.355E+02 -.831E+01 -.116E-13   -.897E+01 0.267E+01 -.416E-23   0.154E-02 -.192E-02 0.222E-13
   -.333E-10 -.716E-11 0.152E-10   0.694E-15 -.329E-13 -.355E-13   0.637E-23 -.246E-23 0.131E-23   -.396E-13 0.141E-13 0.478E-13
   -.328E-10 -.760E-11 0.146E-10   -.228E-14 -.284E-13 0.355E-14   -.901E-23 0.202E-23 0.958E-24   -.266E-13 -.219E-14 -.388E-13
   -.333E-10 -.707E-11 0.154E-10   0.533E-14 0.124E-13 -.853E-13   0.214E-22 0.644E-24 -.577E-24   -.321E-13 0.291E-13 0.317E-13
   -.329E-10 -.665E-11 0.144E-10   0.178E-14 0.711E-14 0.568E-13   0.101E-22 -.436E-24 -.709E-24   -.138E-13 0.492E-13 -.241E-13
   0.477E+01 -.588E+01 0.705E-06   -.484E+01 0.550E+01 0.221E-13   -.139E+01 0.130E+01 -.593E-24   -.666E-03 0.172E-02 0.450E-14
   -.477E+01 0.588E+01 -.705E-06   0.484E+01 -.550E+01 0.602E-14   0.139E+01 -.130E+01 0.420E-24   0.666E-03 -.172E-02 0.217E-13
   -.477E+01 -.588E+01 -.834E-06   0.484E+01 0.550E+01 -.693E-14   0.139E+01 0.130E+01 0.238E-24   0.666E-03 0.172E-02 0.817E-14
   0.477E+01 0.588E+01 0.834E-06   -.484E+01 -.550E+01 0.358E-13   -.139E+01 -.130E+01 -.403E-25   -.666E-03 -.172E-02 0.170E-13
   -.344E-09 -.881E-10 0.131E-09   -.107E-13 -.409E-13 -.256E-13   -.155E-14 0.000E+00 0.547E-22   -.277E-12 0.290E-12 0.103E-12

 POSITION                                       TOTAL-FORCE (eV/Angst)
      3.87885      1.89133      1.92217         0.012789     -0.526880     -0.000000
      0.00610      5.85842      5.76652        -0.012789      0.526880      0.000000
      0.00610      5.76620      1.92217        -0.012789     -0.526880      0.000000
      3.87885      1.98355      5.76652         0.012789      0.526880     -0.000000
      1.96773      7.69899      1.92217         0.741970     -0.042081      0.000000
      1.91722      0.05076      5.76652        -0.741970      0.042081     -0.000000
      1.91722      3.82411      1.92217        -0.741970     -0.042081     -0.000000
      1.96773      3.92564      5.76652         0.741970      0.042081      0.000000
      0.00000      0.00000      0.00000         0.000000     -0.000000      0.000000
      0.00000      0.00000      3.84435         0.000000      0.000000      0.000000
      0.00000      3.87487      3.84435         0.000000     -0.000000      0.000000
      0.00000      3.87487      0.00000         0.000000      0.000000      0.000000
      0.11523      7.62327      1.92217        -1.459469      0.914653      0.000000
      3.76972      0.12648      5.76652         1.459469     -0.914653      0.000000
      3.76972      3.74840      1.92217         1.459469      0.914653      0.000000
      0.11523      4.00135      5.76652        -1.459469     -0.914653      0.000000
    total drift:                               -0.000000     -0.000000      0.000000

  FREE ENERGIE OF THE ION-ELECTRON SYSTEM (eV)
  free  energy   TOTEN  =       -99.57187271 eV

  energy  without entropy=      -99.55997949  energy(sigma->0) =      -99.56592610

 stress matrix after NEB project (eV)
    -12.68773      0.00000      0.00000
      0.00000     -7.68474      0.00000
      0.00000      0.00000     -8.86376
  FORCES: max atom, RMS     1.722394    0.974256
  FORCE total and by dimension    3.897022    1.459469
  Stress total and by dimension   17.280047   12.687731

[...]

 d Force = 0.0000000E+00[ 0.000E+00, 0.000E+00]  d Energy = 0.4826038E-01-0.483E-01
 d Force = 0.0000000E+00[ 0.000E+00, 0.000E+00]  d Ewald  = 0.9117149E+01-0.912E+01

 stress matrix after NEB project (eV)
    -11.63243      0.00000     -0.00000
      0.00000     -6.37294      0.00000
     -0.00000      0.00000     -7.38027
  FORCES: max atom, RMS     1.773482    1.012047
  FORCE total and by dimension    4.048187    1.497241
  Stress total and by dimension   15.178803   11.632426
 Steepest descent step on ions:
 trial-energy change:   -0.048260  1 .order   -0.048150   -0.051545   -0.044756
  (g-gl).g = 0.515E-01      g.g   = 0.515E-01  gl.gl    = 0.000E+00
 g(Force)  = 0.000E+00   g(Stress)= 0.515E-01 ortho     = 0.000E+00
 gamma     =   0.00000
 trial     =   1.00000
 opt step  =   4.00000  (harmonic =   7.59264) maximal distance =0.00000000
 next E    =   -99.726225   (d E  =  -0.15435)

[...]

 d Force = 0.0000000E+00[ 0.000E+00, 0.000E+00]  d Energy = 0.2600518E-01-0.260E-01
 d Force = 0.0000000E+00[ 0.000E+00, 0.000E+00]  d Ewald  = 0.5598125E+02-0.560E+02

[...]

 real space projection operators:
  max/ min on nodes  :        517.69        126.84

[...]

 eigenvalue-minimisations  :  2887
 total energy-change (2. order) :-0.1040403E-05  (-0.6228706E-06)
 number of electron     107.9999933 magnetization       0.6283653
 augmentation part       17.2580504 magnetization       0.2379995

 Broyden mixing:
  rms(total) = 0.37059E-02    rms(broyden)= 0.37059E-02
  rms(prec ) = 0.38247E-02
  weight for this iteration     100.00

 eigenvalues of (default mixing * dielectric matrix)
  average eigenvalue GAMMA=   2.9196
 13.2480  4.7994  3.8746  2.7013  1.0146  1.0146  0.9229  0.7615  0.4297  0.4297

[...]

--------------------------------------- Iteration      5(  12)  ---------------------------------------

 eigenvalue-minimisations  :  1908
 total energy-change (2. order) : 0.1912194E-06  (-0.9565251E-07)
 number of electron     107.9999933 magnetization       0.6283653
 augmentation part       17.2580504 magnetization       0.2379995

 Free energy of the ion-electron system (eV)
  alpha Z        PSCENC =       381.19607063
  Ewald energy   TEWEN  =     -5232.18429601
  -Hartree energ DENC   =     -2444.45709586
  -exchange      EXHF   =         0.00000000
  -V(xc)+E(xc)   XCENC  =       270.49667464
  PAW double counting   =     10088.38868298    -9969.10118010
  entropy T*S    EENTRO =        -0.01563096
  eigenvalues    EBANDS =      -623.16737082
  atomic energy  EATOM  =      7429.07371459
  Solvation  Ediel_sol  =         0.00000000
  free energy    TOTEN  =       -99.77043092 eV

  energy without entropy =      -99.75479996  energy(sigma->0) =      -99.76261544

 average (electrostatic) potential at core
  the test charge radii are     0.7215  1.2793
  (the norm of the test charge is              1.0000)
       1 -73.8656       2 -73.8656       3 -73.8656       4 -73.8656       5 -74.3353
       6 -74.3353       7 -74.3353       8 -74.3353       9 -73.7873      10 -73.7873
      11 -73.7873      12 -73.7873      13 -59.4646      14 -59.4646      15 -59.4646
      16 -59.4646

 E-fermi :   1.7541     XC(G=0):  -9.5778     alpha+bet : -8.0388

[...]

 spin component 2

[...]

 k-point    12 :       0.4000    0.5000    0.5000
  band No.  band energies     occupation
      1     -16.9134      1.00000
      2     -16.9134      1.00000
      3     -16.9134      1.00000
      4     -16.9134      1.00000
      5     -16.5642      1.00000
      6     -16.5642      1.00000
      7     -16.5642      1.00000
      8     -16.5642      1.00000
      9     -16.4776      1.00000
     10     -16.4776      1.00000
     11     -16.4776      1.00000
     12     -16.4776      1.00000
     13      -7.2143      1.00000
     14      -7.2143      1.00000
     15      -7.2143      1.00000
     16      -7.2143      1.00000
     17      -5.6718      1.00000
     18      -5.6718      1.00000
     19      -5.6718      1.00000
     20      -5.6718      1.00000
     21      -5.1570      1.00000
     22      -5.1570      1.00000
     23      -5.1570      1.00000
     24      -5.1570      1.00000
     25      -4.7194      1.00000
     26      -4.7194      1.00000
     27      -4.7194      1.00000
     28      -4.7194      1.00000
     29      -4.6347      1.00000
     30      -4.6347      1.00000
     31      -4.6347      1.00000
     32      -4.6347      1.00000
     33      -3.9800      1.00000
     34      -3.9800      1.00000
     35      -3.9800      1.00000
     36      -3.9800      1.00000
     37      -0.1544      1.00000
     38      -0.1544      1.00000
     39      -0.1544      1.00000
     40      -0.1544      1.00000
     41       0.0455      1.00000
     42       0.0455      1.00000
     43       0.0455      1.00000
     44       0.0455      1.00000
     45       0.2353      1.00000
     46       0.2353      1.00000
     47       0.2353      1.00000
     48       0.2353      1.00000
     49       1.7335      0.71980
     50       1.7335      0.71980
     51       1.7335      0.71980
     52       1.7335      0.71980
     53       2.0526      0.00000
     54       2.0526      0.00000
     55       2.0526      0.00000
     56       2.0526      0.00000
     57       2.1944      0.00000
     58       2.1944      0.00000
     59       2.1944      0.00000
     60       2.1944      0.00000
     61       5.7735      0.00000
     62       5.7735      0.00000
     63       5.7735      0.00000
     64       5.7735      0.00000
     65       7.0376      0.00000
     66       7.0376      0.00000
     67       7.0376      0.00000
     68       7.0376      0.00000
     69      10.8128      0.00000
     70      10.8128      0.00000
     71      10.8128      0.00000
     72      10.8128      0.00000

[...]

 soft charge-density along one line, spin component           2
         0         1         2         3         4         5         6         7         8         9
 total charge-density along one line

------------------------ aborting loop because EDIFF is reached ----------------------------------------

[...]

  FORCE on cell =-STRESS in cart. coord.  units (eV):
  Direction    XX          YY          ZZ          XY          YZ          ZX
  Alpha Z   381.19607   381.19607   381.19607
  Ewald   -1759.16316 -1748.73429 -1724.30308     0.00000    -0.00000     0.00000
  Hartree   795.15920   814.52876   834.56233    -0.00000    -0.00000    -0.00000
  E(xc)    -520.62175  -520.96402  -520.99351    -0.00000    -0.00000    -0.00000
  Local    -862.42396  -897.80465  -945.13179    -0.00000    -0.00000    -0.00000
  n-local  -282.81635  -279.95902  -279.84429    -0.00000     0.00000    -0.00000
  augment   229.35680   231.51986   232.40981     0.00000     0.00000     0.00000
  Kinetic  2015.19370  2022.27248  2023.66080     0.00000     0.00000    -0.00000
  Fock        0.00000     0.00000     0.00000     0.00000     0.00000     0.00000
  Total      -4.11944     2.05519     1.55635     0.00000     0.00000     0.00000
  in kB     -29.68812    14.81142    11.21634     0.00000     0.00000     0.00000

 VOLUME and BASIS-vectors are now :
  energy-cutoff  :      600.00
  volume of cell :      222.31
      direct lattice vectors                 reciprocal lattice vectors
     3.832943911  0.000000000  0.000000000     0.260896069  0.000000000  0.000000000
     0.000000000  7.646007562  0.000000000     0.000000000  0.130787210  0.000000000
     0.000000000  0.000000000  7.585764945     0.000000000  0.000000000  0.131825862

  length of vectors
     3.832943911  7.646007562  7.585764945     0.260896069  0.130787210  0.131825862

 FORCES acting on ions
    electron-ion (+dipol)            ewald-force                    non-local-force                 convergence-correction
   -.129E+01 0.240E+02 -.767E-05   0.210E+01 -.333E+02 -.339E-14   -.775E+00 0.840E+01 -.436E-24   0.136E-02 -.349E-02 -.752E-14
   0.129E+01 -.240E+02 0.767E-05   -.210E+01 0.333E+02 0.104E-13   0.775E+00 -.840E+01 -.232E-25   -.136E-02 0.349E-02 0.521E-13
   0.129E+01 0.240E+02 0.952E-05   -.210E+01 -.333E+02 -.372E-14   0.775E+00 0.840E+01 -.684E-25   -.136E-02 -.349E-02 0.527E-14
   -.129E+01 -.240E+02 -.952E-05   0.210E+01 0.333E+02 0.108E-13   -.775E+00 -.840E+01 0.153E-24   0.136E-02 0.349E-02 0.344E-13
   -.261E+02 -.568E+01 0.213E-04   0.364E+02 0.854E+01 0.128E-13   -.925E+01 -.287E+01 -.374E-25   0.385E-03 0.403E-02 -.373E-13
   0.261E+02 0.568E+01 -.213E-04   -.364E+02 -.854E+01 -.237E-13   0.925E+01 0.287E+01 0.394E-25   -.385E-03 -.403E-02 0.190E-13
   0.261E+02 -.568E+01 -.961E-05   -.364E+02 0.854E+01 -.163E-13   0.925E+01 -.287E+01 -.190E-24   -.385E-03 0.403E-02 -.193E-13
   -.261E+02 0.568E+01 0.961E-05   0.364E+02 -.854E+01 0.158E-13   -.925E+01 0.287E+01 0.191E-24   0.385E-03 -.403E-02 0.505E-13
   -.329E-10 -.715E-11 0.151E-10   -.167E-14 0.524E-13 -.568E-13   0.425E-24 -.157E-23 -.118E-23   -.349E-13 0.427E-13 -.100E-12
   -.324E-10 -.757E-11 0.143E-10   0.722E-15 0.488E-13 0.284E-13   -.194E-23 0.477E-24 -.108E-23   -.136E-13 0.280E-13 0.152E-12
   -.330E-10 -.704E-11 0.152E-10   0.178E-14 -.409E-13 -.853E-13   0.136E-23 0.417E-24 0.264E-23   -.281E-13 0.234E-13 -.253E-14
   -.325E-10 -.663E-11 0.142E-10   0.000E+00 -.373E-13 0.000E+00   -.452E-24 -.139E-23 0.208E-23   -.103E-13 0.339E-13 0.122E-13
   0.469E+01 -.581E+01 0.860E-06   -.497E+01 0.565E+01 0.420E-14   -.150E+01 0.137E+01 0.178E-24   0.417E-03 0.341E-02 -.431E-13
   -.469E+01 0.581E+01 -.860E-06   0.497E+01 -.565E+01 0.319E-13   0.150E+01 -.137E+01 -.180E-24   -.417E-03 -.341E-02 0.306E-13
   -.469E+01 -.581E+01 -.996E-06   0.497E+01 0.565E+01 0.270E-13   0.150E+01 0.137E+01 0.411E-24   -.417E-03 0.341E-02 -.311E-14
   0.469E+01 0.581E+01 0.996E-06   -.497E+01 -.565E+01 0.293E-13   -.150E+01 -.137E+01 0.101E-24   0.417E-03 -.341E-02 0.279E-13
   -.338E-09 -.875E-10 0.129E-09   -.888E-15 0.444E-14 -.187E-13   0.444E-15 -.444E-15 0.260E-23   -.360E-12 0.349E-12 0.171E-12

 POSITION                                       TOTAL-FORCE (eV/Angst)
      3.82693      1.86601      1.89644         0.037095     -0.923771      0.000000
      0.00602      5.78000      5.68932        -0.037095      0.923771      0.000000
      0.00602      5.68901      1.89644        -0.037095     -0.923771     -0.000000
      3.82693      1.95700      5.68932         0.037095      0.923771     -0.000000
      1.94139      7.59593      1.89644         1.111130     -0.007886      0.000000
      1.89156      0.05008      5.68932        -1.111130      0.007886     -0.000000
      1.89156      3.77292      1.89644        -1.111130     -0.007886      0.000000
      1.94139      3.87309      5.68932         1.111130      0.007886     -0.000000
      0.00000      0.00000      0.00000        -0.000000      0.000000     -0.000000
      0.00000      0.00000      3.79288         0.000000      0.000000     -0.000000
      0.00000      3.82300      3.79288         0.000000      0.000000     -0.000000
      0.00000      3.82300      0.00000        -0.000000      0.000000     -0.000000
      0.11369      7.52122      1.89644        -1.780218      1.210043     -0.000000
      3.71926      0.12478      5.68932         1.780218     -1.210043      0.000000
      3.71926      3.69822      1.89644         1.780218      1.210043     -0.000000
      0.11369      3.94779      5.68932        -1.780218     -1.210043      0.000000
    total drift:                               -0.000000     -0.000000      0.000000

  FREE ENERGIE OF THE ION-ELECTRON SYSTEM (eV)
  free  energy   TOTEN  =       -99.77043092 eV

  energy  without entropy=      -99.75479996  energy(sigma->0) =      -99.76261544

 d Force = 0.0000000E+00[ 0.000E+00, 0.000E+00]  d Energy = 0.1989295E-01-0.199E-01
 d Force = 0.0000000E+00[ 0.000E+00, 0.000E+00]  d Ewald  =-0.2260319E+02 0.226E+02

 stress matrix after NEB project (eV)
     -4.11944      0.00000      0.00000
      0.00000      2.05519      0.00000
     -0.00000      0.00000      1.55635
  FORCES: max atom, RMS     2.152529    1.296416
  FORCE total and by dimension    5.185666    1.780218
  Stress total and by dimension    4.859615    4.119444

 reached required accuracy - stopping structural energy minimisation
 writing wavefunctions

 total charge

[...]

 magnetization (x)

# of ion       s       p       d       tot
    1        0.001   0.030   0.000   0.030
    2        0.001   0.030   0.000   0.030
    3        0.001   0.030   0.000   0.030
    4        0.001   0.030   0.000   0.030
    5        0.001  -0.000   0.000   0.000
    6        0.001  -0.000   0.000   0.000
    7        0.001  -0.000   0.000   0.000
    8        0.001  -0.000   0.000   0.000
    9        0.001   0.029   0.000   0.030
   10        0.001   0.029   0.000   0.030
   11        0.001   0.029   0.000   0.030
   12        0.001   0.029   0.000   0.030
   13       -0.000   0.000   0.077   0.077
   14       -0.000   0.000   0.077   0.077
   15       -0.000   0.000   0.077   0.077
   16       -0.000   0.000   0.077   0.077
tot          0.010   0.232   0.308   0.551