 vasp.5.4.4.18Apr17-6-g9f103f2a35 (build Aug 21 2019 12:36:18) complex

 executed on IFC18.0.1.163_CrayMP date 2019.08.30  20:07:35

 INCAR:
 POTCAR:    PAW_PBE O 08Apr2002
 POTCAR:    PAW_PBE Ir 06Sep2000

 POTCAR:    PAW_PBE O 08Apr2002
   VRHFIN =O: s2p4

   TITEL  = PAW_PBE O 08Apr2002
   POMASS =   16.000; ZVAL   =    6.000    mass and valenz
   ENMAX  =  400.000; ENMIN  =  300.000 eV

 POTCAR:    PAW_PBE Ir 06Sep2000
   VRHFIN =Ir: s1d8

   TITEL  = PAW_PBE Ir 06Sep2000
   POMASS =  192.220; ZVAL   =    9.000    mass and valenz
   ENMAX  =  210.864; ENMIN  =  158.148 eV

 Optimization of the real space projectors (new method)

 maximal supplied QI-value         = 24.76
 optimisation between [QCUT,QGAM] = [ 12.38, 31.19] = [ 42.90,272.45] Ry
 Optimized for a Real-space Cutoff    0.88 Angstroem

   l    n(q)    QCUT    max X(q) W(low)/X(q) W(high)/X(q)  e(spline)
   0      8    12.378    20.381    0.23E-03    0.15E-03    0.14E-06
   0      8    12.378    15.268    0.25E-03    0.16E-03    0.15E-06
   1      8    12.378     5.964    0.24E-03    0.11E-03    0.16E-06
   1      8    12.378     5.382    0.21E-03    0.84E-04    0.13E-06
 Optimization of the real space projectors (new method)

 maximal supplied QI-value         = 14.36
 optimisation between [QCUT,QGAM] = [ 12.49, 31.31] = [ 43.72,274.50] Ry
 Optimized for a Real-space Cutoff    1.40 Angstroem

   l    n(q)    QCUT    max X(q) W(low)/X(q) W(high)/X(q)  e(spline)
   2     12    12.495   134.116    0.29E-03    0.64E-03    0.30E-04
   2     12    12.495   130.192    0.29E-03    0.64E-03    0.30E-04
   0     13    12.495    60.310    0.11E-03    0.19E-03    0.31E-04
   0     13    12.495    39.218    0.10E-03    0.18E-03    0.29E-04
   1     13    12.495    18.439    0.29E-03    0.21E-04    0.43E-04
   1     13    12.495    12.760    0.22E-03    0.16E-04    0.33E-04
  PAW_PBE O 08Apr2002                   :
  PAW_PBE Ir 06Sep2000                  :

 POSCAR:  O Ir
  positions in cartesian coordinates
 exchange correlation table for  LEXCH =        8
   RHO(1)=    0.500       N(1)  =     2000
   RHO(2)=  100.500       N(2)  =     4000

 VTST: version 3.2, (02/03/18)

 CHAIN: initializing optimizer

 OPT: Using VASP Conjugate-Gradient optimizer
 CHAIN: Read ICHAIN            0

 POSCAR:  O Ir
  positions in cartesian coordinates

 ion  position               nearest neighbor table
   1  0.000  0.250  0.250-  13 1.91  15 1.91
   2  1.000  0.750  0.750-  14 1.91  16 1.91
   3  1.000  0.750  0.250-  13 1.91  15 1.91
   4  0.000  0.250  0.750-  14 1.91  16 1.91
   5  0.500  0.000  0.250-  13 1.88  13 1.88
   6  0.500  1.000  0.750-  14 1.88  14 1.88
   7  0.500  0.500  0.250-  15 1.88  15 1.88
   8  0.500  0.500  0.750-  16 1.88  16 1.88
   9  0.000  0.000  0.000-  13 1.91  14 1.91
  10  0.000  0.000  0.500-  13 1.91  14 1.91
  11  0.000  0.500  0.500-  15 1.91  16 1.91
  12  0.000  0.500  0.000-  15 1.91  16 1.91
  13  0.000  0.000  0.250-   5 1.88   5 1.88   1 1.91   3 1.91  10 1.91   9 1.91
  14  0.000  1.000  0.750-   6 1.88   6 1.88   2 1.91   4 1.91  10 1.91   9 1.91
  15  0.000  0.500  0.250-   7 1.88   7 1.88   1 1.91   3 1.91  12 1.91  11 1.91
  16  0.000  0.500  0.750-   8 1.88   8 1.88   2 1.91   4 1.91  12 1.91  11 1.91

  LATTYP: Found a simple orthorhombic cell.
 ALAT       =     3.7670400000
 B/A-ratio  =     2.0231959310
 C/A-ratio  =     2.0232198225

  Lattice vectors:

 A1 = (   3.7670400000,   0.0000000000,   0.0000000000)
 A2 = (   0.0000000000,   7.6214600000,   0.0000000000)
 A3 = (   0.0000000000,   0.0000000000,   7.6215500000)

Analysis of symmetry for initial positions (statically):
 Subroutine PRICEL returns:
 Original cell was already a primitive cell.

 Routine SETGRP: Setting up the symmetry group for a
 simple orthorhombic supercell.

 Subroutine GETGRP returns: Found  8 space group operations
 (whereof  2 operations were pure point group operations)
 out of a pool of  8 trial point group operations.

The static configuration has the point symmetry S_2 .
 The point group associated with its full space group is D_2h.

Analysis of symmetry for dynamics (positions and initial velocities):
 Subroutine PRICEL returns:
 Original cell was already a primitive cell.

[...]

The dynamic configuration has the point symmetry S_2 .
 The point group associated with its full space group is D_2h.

Analysis of structural, dynamic, and magnetic symmetry:
 Subroutine PRICEL returns:
 Original cell was already a primitive cell.

 Routine SETGRP: Setting up the symmetry group for a
 simple orthorhombic supercell.

 Subroutine GETGRP returns: Found  8 space group operations
 (whereof  2 operations were pure point group operations)
 out of a pool of  8 trial point group operations.

The magnetic configuration has the point symmetry S_2 .
 The point group associated with its full space group is D_2h.

 Subroutine INISYM returns: Found  8 space group operations
 (whereof  2 operations are pure point group operations),
 and found     1 'primitive' translations

 KPOINTS: KPOINTS created by Atomic Simulation Env

Automatic generation of k-mesh.
Space group operators:
 irot       det(A)        alpha          n_x          n_y          n_z        tau_x        tau_y        tau_z
    1     1.000000     0.000001     1.000000     0.000000     0.000000     0.000000     0.000000     0.000000
    2    -1.000000     0.000001     1.000000     0.000000     0.000000     0.000000     0.000000     0.000000
    3     1.000000   180.000000     0.000000     0.000000     1.000000     0.000000     0.000000     0.500000
    4    -1.000000   180.000000     0.000000     0.000000     1.000000     0.000000     0.000000     0.500000
    5     1.000000   180.000000     0.000000     1.000000     0.000000     0.000000     0.500000     0.500000
    6    -1.000000   180.000000     0.000000     1.000000     0.000000     0.000000     0.500000     0.500000
    7     1.000000   179.999999     1.000000     0.000000     0.000000     0.000000     0.500000     0.000000
    8    -1.000000   179.999999     1.000000     0.000000     0.000000     0.000000     0.500000     0.000000

 Subroutine IBZKPT returns following result:

 Found     12 irreducible k-points:

 Following reciprocal coordinates:
            Coordinates               Weight
  0.000000  0.000000  0.000000      1.000000
  0.200000  0.000000  0.000000      2.000000
  0.400000  0.000000  0.000000      2.000000
  0.000000  0.500000  0.000000      1.000000
  0.200000  0.500000  0.000000      2.000000
  0.400000  0.500000  0.000000      2.000000
  0.000000  0.000000  0.500000      1.000000
  0.200000  0.000000  0.500000      2.000000
  0.400000  0.000000  0.500000      2.000000
  0.000000  0.500000  0.500000      1.000000
  0.200000  0.500000  0.500000      2.000000
  0.400000  0.500000  0.500000      2.000000

 Following cartesian coordinates:
            Coordinates               Weight
  0.000000  0.000000  0.000000      1.000000
  0.053092  0.000000  0.000000      2.000000
  0.106184  0.000000  0.000000      2.000000
  0.000000  0.065604  0.000000      1.000000
  0.053092  0.065604  0.000000      2.000000
  0.106184  0.065604  0.000000      2.000000
  0.000000  0.000000  0.065603      1.000000
  0.053092  0.000000  0.065603      2.000000
  0.106184  0.000000  0.065603      2.000000
  0.000000  0.065604  0.065603      1.000000
  0.053092  0.065604  0.065603      2.000000
  0.106184  0.065604  0.065603      2.000000

 SYSTEM =  unknown system
 POSCAR =   O Ir

 Startparameter for this run:
   NWRITE =      2    write-flag & timer
   PREC   = high      normal or accurate (medium, high low for compatibility)
   ISTART =      0    job   : 0-new  1-cont  2-samecut
   ICHARG =      2    charge: 1-file 2-atom 10-const
   ISPIN  =      2    spin polarized calculation?
   LNONCOLLINEAR =      F non collinear calculations
   LSORBIT =      F    spin-orbit coupling
   INIWAV =      1    electr: 0-lowe 1-rand  2-diag
   LASPH  =      T    aspherical Exc in radial PAW
   METAGGA=      F    non-selfconsistent MetaGGA calc.

 Electronic Relaxation 1
   ENCUT  =  600.0 eV  44.10 Ry    6.64 a.u.   7.52 15.22 15.22*2*pi/ulx,y,z
   ENINI  =  600.0     initial cutoff
   ENAUG  =  605.4 eV  augmentation charge cutoff
   NELM   =    220;   NELMIN=  2; NELMDL= -5     # of ELM steps
   EDIFF  = 0.1E-05   stopping-criterion for ELM
   LREAL  =      T    real-space projection
   NLSPLINE    = F    spline interpolate recip. space projectors
   LCOMPAT=      F    compatible to vasp.4.4
   GGA_COMPAT  = T    GGA compatible to vasp.4.4-vasp.4.6
   LMAXPAW     = -100 max onsite density
   LMAXMIX     =    6 max onsite mixed and CHGCAR
   VOSKOWN=      0    Vosko Wilk Nusair interpolation
   ROPT   =   -0.00040  -0.00040
 Ionic relaxation
   EDIFFG = 0.1E-02   stopping-criterion for IOM
   NSW    =    150    number of steps for IOM
   NBLOCK =      1;   KBLOCK =    150    inner block; outer block
   IBRION =      2    ionic relax: 0-MD 1-quasi-New 2-CG
   NFREE  =      1    steps in history (QN), initial steepest desc. (CG)
   ISIF   =      2    stress and relaxation
   IWAVPR =     11    prediction:  0-non 1-charg 2-wave 3-comb
   ISYM   =      2    0-nonsym 1-usesym 2-fastsym
   LCORR  =      T    Harris-Foulkes like correction to forces

   POTIM  = 0.0300    time-step for ionic-motion
   TEIN   =    0.0    initial temperature
   TEBEG  =    0.0;   TEEND  =   0.0 temperature during run
   SMASS  =  -3.00    Nose mass-parameter (am)
   estimated Nose-frequenzy (Omega)   =  0.10E-29 period in steps =****** mass=  -0.324E-27a.u.
   SCALEE = 1.0000    scale energy and forces
   NPACO  =    256;   APACO  = 16.0  distance and # of slots for P.C.
   PSTRESS=    0.0 pullay stress

  Mass of Ions in am
   POMASS =  16.00192.22
  Ionic Valenz
   ZVAL   =   6.00  9.00
  Atomic Wigner-Seitz radii
  virtual crystal weights
   VCA    =   1.00  1.00
   NELECT =     108.0000    total number of electrons
   NUPDOWN=      -1.0000    fix difference up-down

 DOS related values:
   EMIN   =  10.00;   EMAX   =-10.00  energy-range for DOS
   EFERMI =   0.00
   ISMEAR =     0;   SIGMA  =   0.05  broadening in eV -4-tet -1-fermi 0-gaus

 Electronic relaxation 2 (details)
   IALGO  =     68    algorithm
   LDIAG  =      T    sub-space diagonalisation (order eigenvalues)
   LSUBROT=      F    optimize rotation matrix (better conditioning)
   TURBO    =      0    0=normal 1=particle mesh
   IRESTART =      0    0=no restart 2=restart with 2 vectors
   NREBOOT  =      0    no. of reboots
   NMIN     =      0    reboot dimension
   EREF     =   0.00    reference energy to select bands
   IMIX   =      4    mixing-type and parameters
     AMIX     =   0.20;   BMIX     =  0.00
     AMIX_MAG =   0.10;   BMIX_MAG =  0.00
     AMIN     =   0.10
     WC   =   100.;   INIMIX=   0;  MIXPRE=   1;  MAXMIX= -45

 Intra band minimization:
   WEIMIN = 0.0010     energy-eigenvalue tresh-hold
   EBREAK =  0.35E-08  absolut break condition
   DEPER  =   0.30     relativ break condition

   TIME   =   0.40     timestep for ELM

  volume/ion in A,a.u.               =      13.68        92.29
  Fermi-wavevector in a.u.,A,eV,Ry     =   1.293765  2.444862 22.773823  1.673829
[...]
 total energy-change (2. order) : 0.1190482E+04  (-0.5779134E+04)
 number of electron     108.0000000 magnetization      16.0000000
 augmentation part      108.0000000 magnetization      16.0000000

 Free energy of the ion-electron system (eV)
  alpha Z        PSCENC =       387.28731673
  Ewald energy   TEWEN  =     -5258.25976467
  -Hartree energ DENC   =     -2400.63642690
  -exchange      EXHF   =         0.00000000
  -V(xc)+E(xc)   XCENC  =       264.58956259
  PAW double counting   =      6362.12184073    -6222.39335305
  entropy T*S    EENTRO =        -0.00600943
  eigenvalues    EBANDS =       628.70463308
  atomic energy  EATOM  =      7429.07371459
  Solvation  Ediel_sol  =         0.00000000
  free energy    TOTEN  =      1190.48151368 eV

  energy without entropy =     1190.48752311  energy(sigma->0) =     1190.48451840

[...]

 eigenvalue-minimisations  :  3492
 total energy-change (2. order) :-0.1159862E+04  (-0.1099879E+04)
 number of electron     108.0000000 magnetization      16.0000000
 augmentation part      108.0000000 magnetization      16.0000000

[...]

 Broyden mixing:
  rms(total) = 0.10287E+02    rms(broyden)= 0.10287E+02
  rms(prec ) = 0.11388E+02
  weight for this iteration     100.00

[...]

 eigenvalues of (default mixing * dielectric matrix)
  average eigenvalue GAMMA=   1.8128
  1.8128

[...]

 eigenvalue-minimisations  :  2915
 total energy-change (2. order) :-0.1700629E-04  (-0.9330674E-06)
 number of electron     107.9999770 magnetization       0.9001066
 augmentation part       17.2710610 magnetization       0.3901594

 Broyden mixing:
  rms(total) = 0.36266E-01    rms(broyden)= 0.36266E-01
  rms(prec ) = 0.37691E-01
  weight for this iteration     100.00

 eigenvalues of (default mixing * dielectric matrix)
  average eigenvalue GAMMA=   2.6155
 14.2806  8.0526  7.5762  7.5762  4.6763  4.6763  3.3613  3.3613  2.1805  1.7046
  1.7046  1.4248  1.4248  1.4243  1.4243  1.2663  1.2663  0.6783  0.6783  0.7661
  0.7661  1.0377  1.0377  0.9449  0.9449  0.7421  0.8822  0.8822  0.8872  0.8370

[...]

--------------------------------------- Iteration      1(  36)  ---------------------------------------

 eigenvalue-minimisations  :  2050
 total energy-change (2. order) : 0.8314100E-06  (-0.1408772E-06)
 number of electron     107.9999770 magnetization       0.9001066
 augmentation part       17.2710610 magnetization       0.3901594

 Free energy of the ion-electron system (eV)
  alpha Z        PSCENC =       387.28731673
  Ewald energy   TEWEN  =     -5258.25976467
  -Hartree energ DENC   =     -2433.60306664
  -exchange      EXHF   =         0.00000000
  -V(xc)+E(xc)   XCENC  =       271.31587060
  PAW double counting   =     10087.96135866    -9969.45910625
  entropy T*S    EENTRO =        -0.01873538
  eigenvalues    EBANDS =      -614.66949153
  atomic energy  EATOM  =      7429.07371459
  Solvation  Ediel_sol  =         0.00000000
  free energy    TOTEN  =      -100.37190389 eV

  energy without entropy =     -100.35316851  energy(sigma->0) =     -100.36253620

 average (electrostatic) potential at core
  the test charge radii are     0.7215  1.2793
  (the norm of the test charge is              1.0000)
       1 -73.6121       2 -73.6121       3 -73.6121       4 -73.6121       5 -74.2973
       6 -74.2973       7 -74.2973       8 -74.2973       9 -73.6117      10 -73.6117
      11 -73.6117      12 -73.6117      13 -59.4647      14 -59.4647      15 -59.4647
      16 -59.4647

 E-fermi :   1.7939     XC(G=0):  -9.6514     alpha+bet : -8.1672

 spin component 1

 k-point     1 :       0.0000    0.0000    0.0000
  band No.  band energies     occupation
      1     -18.0604      1.00000
      2     -17.8544      1.00000
      3     -17.8543      1.00000
      4     -17.7031      1.00000
      5     -17.1046      1.00000
      6     -16.9553      1.00000
      7     -16.9549      1.00000
      8     -16.7878      1.00000
      9     -15.9398      1.00000
     10     -15.9394      1.00000
     11     -15.9004      1.00000
     12     -15.9001      1.00000
     13      -7.5338      1.00000
     14      -7.3648      1.00000
     15      -7.3645      1.00000
     16      -7.1168      1.00000
     17      -5.2923      1.00000
     18      -3.8793      1.00000
     19      -3.8791      1.00000
     20      -3.8413      1.00000
     21      -3.8411      1.00000
     22      -3.8329      1.00000
     23      -3.8326      1.00000
     24      -3.2731      1.00000
     25      -3.0577      1.00000
     26      -3.0577      1.00000
     27      -2.9700      1.00000
     28      -2.9699      1.00000
     29      -2.7069      1.00000
     30      -2.7067      1.00000
     31      -2.6797      1.00000
     32      -2.0359      1.00000
     33      -2.0359      1.00000
     34      -2.0126      1.00000
     35      -2.0125      1.00000
     36      -1.9469      1.00000
     37      -1.7106      1.00000
     38      -1.7104      1.00000
     39      -1.3593      1.00000
     40      -1.3593      1.00000
     41      -0.5762      1.00000
     42      -0.5759      1.00000
     43      -0.5312      1.00000
     44      -0.5312      1.00000
     45      -0.4927      1.00000
     46      -0.4927      1.00000
     47      -0.2491      1.00000
     48      -0.1550      1.00000
     49      -0.1547      1.00000
     50      -0.1122      1.00000
     51      -0.1119      1.00000
     52      -0.0896      1.00000
     53       0.9972      1.00000
     54       1.6548      0.99996
     55       1.6658      0.99986
     56       1.6679      0.99982
     57       1.6680      0.99982
     58       2.3902      0.00000
     59       2.3903      0.00000
     60       2.4005      0.00000
     61       2.4006      0.00000
     62       2.4131      0.00000
     63       2.4132      0.00000
     64       2.8993      0.00000
     65       3.4614      0.00000
     66       5.4161      0.00000
     67       5.4161      0.00000
     68       7.8849      0.00000
     69       9.0701      0.00000
     70      10.8542      0.00000
     71      10.8543      0.00000
     72      11.9561      0.00000

[...]

 spin component 2

[...]

 k-point    12 :       0.4000    0.5000    0.5000
  band No.  band energies     occupation
      1     -16.7653      1.00000
      2     -16.7653      1.00000
      3     -16.7653      1.00000
      4     -16.7653      1.00000
      5     -16.5053      1.00000
      6     -16.5053      1.00000
      7     -16.5053      1.00000
      8     -16.5053      1.00000
      9     -16.3108      1.00000
     10     -16.3108      1.00000
     11     -16.3108      1.00000
     12     -16.3108      1.00000
     13      -7.4869      1.00000
     14      -7.4869      1.00000
     15      -7.4869      1.00000
     16      -7.4869      1.00000
     17      -5.4993      1.00000
     18      -5.4993      1.00000
     19      -5.4993      1.00000
     20      -5.4993      1.00000
     21      -4.9771      1.00000
     22      -4.9771      1.00000
     23      -4.9771      1.00000
     24      -4.9771      1.00000
     25      -4.7891      1.00000
     26      -4.7891      1.00000
     27      -4.7891      1.00000
     28      -4.7891      1.00000
     29      -4.7450      1.00000
     30      -4.7450      1.00000
     31      -4.7450      1.00000
     32      -4.7450      1.00000
     33      -3.9038      1.00000
     34      -3.9038      1.00000
     35      -3.9038      1.00000
     36      -3.9038      1.00000
     37      -0.0103      1.00000
     38      -0.0103      1.00000
     39      -0.0103      1.00000
     40      -0.0103      1.00000
     41       0.2711      1.00000
     42       0.2711      1.00000
     43       0.2711      1.00000
     44       0.2711      1.00000
     45       0.4048      1.00000
     46       0.4048      1.00000
     47       0.4048      1.00000
     48       0.4048      1.00000
     49       1.7703      0.74836
     50       1.7703      0.74836
     51       1.7703      0.74836
     52       1.7703      0.74836
     53       2.2191      0.00000
     54       2.2191      0.00000
     55       2.2191      0.00000
     56       2.2191      0.00000
     57       2.3342      0.00000
     58       2.3342      0.00000
     59       2.3342      0.00000
     60       2.3342      0.00000
     61       6.0055      0.00000
     62       6.0055      0.00000
     63       6.0055      0.00000
     64       6.0055      0.00000
     65       7.5216      0.00000
     66       7.5216      0.00000
     67       7.5216      0.00000
     68       7.5216      0.00000
     69      11.0566      0.00000
     70      11.0566      0.00000
     71      11.0566      0.00000
     72      11.0566      0.00000

 soft charge-density along one line, spin component           1
         0         1         2         3         4         5         6         7         8         9
 total charge-density along one line

 soft charge-density along one line, spin component           2
         0         1         2         3         4         5         6         7         8         9
 total charge-density along one line

------------------------ aborting loop because EDIFF is reached ----------------------------------------

 total charge

# of ion       s       p       d       tot
    1        1.559   3.429   0.000   4.989
    2        1.559   3.429   0.000   4.989
    3        1.559   3.429   0.000   4.989
    4        1.559   3.429   0.000   4.989
    5        1.566   3.422   0.000   4.988
    6        1.566   3.422   0.000   4.988
    7        1.566   3.422   0.000   4.988
    8        1.566   3.422   0.000   4.988
    9        1.559   3.429   0.000   4.989
   10        1.559   3.429   0.000   4.989
   11        1.559   3.429   0.000   4.989
   12        1.559   3.429   0.000   4.989
   13        0.672   1.088   6.631   8.391
   14        0.672   1.088   6.631   8.391
   15        0.672   1.088   6.631   8.391
   16        0.672   1.088   6.631   8.391
tot         21.426  45.476  26.523  93.425

 magnetization (x)

[...]

  FORCE on cell =-STRESS in cart. coord.  units (eV):
  Direction    XX          YY          ZZ          XY          YZ          ZX
  Alpha Z   387.28732   387.28732   387.28732
  Ewald   -1680.48036 -1788.84214 -1788.95408     0.00000    -0.00000    -0.00000
  Hartree   833.56012   800.08784   800.03760    -0.00000    -0.00000    -0.00000
  E(xc)    -521.47351  -521.63451  -521.63475     0.00000    -0.00000    -0.00000
  Local    -982.33578  -854.71234  -854.55889     0.00000    -0.00000    -0.00000
  n-local  -279.84570  -279.74333  -279.71261    -0.00000    -0.00000    -0.00000
  augment   228.84658   232.61171   232.61459    -0.00000     0.00000     0.00000
  Kinetic  2014.27650  2025.34085  2025.34704     0.00000    -0.00000     0.00000
  Fock        0.00000     0.00000     0.00000     0.00000     0.00000     0.00000
  Total      -0.16484     0.39540     0.42621     0.00000     0.00000     0.00000
  in kB      -1.20696     2.89508     3.12071     0.00000     0.00000     0.00000

 VOLUME and BASIS-vectors are now :
  energy-cutoff  :      600.00
  volume of cell :      218.82
      direct lattice vectors                 reciprocal lattice vectors
     3.767040000  0.000000000  0.000000000     0.265460415  0.000000000  0.000000000
     0.000000000  7.621460000  0.000000000     0.000000000  0.131208456  0.000000000
     0.000000000  0.000000000  7.621550000     0.000000000  0.000000000  0.131206907

  length of vectors
     3.767040000  7.621460000  7.621550000     0.265460415  0.131208456  0.131206907

 FORCES acting on ions
    electron-ion (+dipol)            ewald-force                    non-local-force                 convergence-correction
   -.359E-01 -.974E-02 0.105E-05   0.577E-01 0.951E-02 -.121E-13   -.171E-01 0.929E-02 -.277E-23   0.444E-03 -.952E-05 -.231E-13
   0.359E-01 0.974E-02 -.105E-05   -.577E-01 -.951E-02 0.114E-13   0.171E-01 -.929E-02 0.312E-23   -.444E-03 0.952E-05 0.254E-13
   0.359E-01 -.974E-02 -.561E-06   -.577E-01 0.951E-02 -.121E-13   0.171E-01 0.929E-02 0.133E-23   -.444E-03 -.952E-05 -.103E-13
   -.359E-01 0.974E-02 0.561E-06   0.577E-01 -.951E-02 0.255E-14   -.171E-01 -.929E-02 -.146E-23   0.444E-03 0.952E-05 0.416E-13
   0.169E-04 -.431E-01 0.857E-06   0.254E-04 0.599E-01 -.174E-13   0.176E-04 -.169E-01 -.162E-23   -.554E-04 0.280E-03 -.523E-13
   -.169E-04 0.431E-01 -.857E-06   -.254E-04 -.599E-01 -.991E-14   -.176E-04 0.169E-01 0.163E-23   0.554E-04 -.280E-03 0.370E-14
   -.169E-04 -.431E-01 0.857E-06   -.254E-04 0.599E-01 -.174E-13   -.176E-04 -.169E-01 0.785E-24   0.554E-04 0.280E-03 -.807E-13
   0.169E-04 0.431E-01 -.857E-06   0.254E-04 -.599E-01 -.991E-14   0.176E-04 0.169E-01 -.944E-24   -.554E-04 -.280E-03 -.313E-13
   -.461E-14 -.427E-13 -.779E-13   0.219E-14 0.341E-13 0.320E-13   -.184E-23 -.594E-23 0.298E-23   -.118E-12 -.493E-13 -.842E-13
   -.440E-14 -.427E-13 0.234E-12   0.901E-15 0.217E-13 -.355E-14   -.158E-23 0.719E-23 0.233E-23   -.127E-12 -.476E-13 0.754E-13
   -.207E-14 0.285E-12 0.109E-12   0.156E-14 -.467E-13 -.284E-13   -.231E-23 -.114E-24 0.166E-23   -.105E-12 0.570E-13 0.443E-13
   -.203E-14 0.285E-12 0.488E-13   0.390E-14 -.272E-13 0.568E-13   0.228E-23 -.192E-23 0.132E-23   -.107E-12 0.559E-13 -.102E-12
   -.446E-04 0.192E-01 -.209E-08   -.612E-06 -.202E-01 -.758E-14   -.373E-06 0.508E-02 -.193E-23   0.505E-04 -.985E-05 -.460E-14
   0.446E-04 -.192E-01 0.209E-08   0.612E-06 0.202E-01 0.780E-14   0.373E-06 -.508E-02 0.181E-23   -.505E-04 0.985E-05 0.410E-13
   0.446E-04 0.192E-01 -.209E-08   0.612E-06 -.202E-01 -.777E-14   0.373E-06 0.508E-02 0.254E-23   -.505E-04 -.985E-05 0.123E-13
   -.446E-04 -.192E-01 0.209E-08   -.612E-06 0.202E-01 0.761E-14   -.373E-06 -.508E-02 -.171E-23   0.505E-04 0.985E-05 0.395E-13
   0.528E-12 0.387E-11 0.681E-12   0.273E-13 0.321E-13 -.794E-14   0.347E-17 0.694E-17 0.908E-23   -.114E-11 0.355E-12 -.106E-12

 POSITION                                       TOTAL-FORCE (eV/Angst)
      0.00049      1.90559      1.90539         0.005184      0.009053      0.000000
      3.76655      5.71587      5.71616        -0.005184     -0.009053      0.000000
      3.76655      5.71632      1.90539        -0.005184      0.009053      0.000000
      0.00049      1.90514      5.71616         0.005184     -0.009053     -0.000000
      1.88352      0.00061      1.90539         0.000005      0.000202      0.000000
      1.88352      7.62085      5.71616        -0.000005     -0.000202      0.000000
      1.88352      3.81134      1.90539        -0.000005      0.000202     -0.000000
      1.88352      3.81012      5.71616         0.000005     -0.000202     -0.000000
      0.00000      0.00000      0.00000        -0.000000      0.000000      0.000000
      0.00000      0.00000      3.81078        -0.000000     -0.000000      0.000000
      0.00000      3.81073      3.81078        -0.000000      0.000000      0.000000
      0.00000      3.81073      0.00000        -0.000000     -0.000000      0.000000
      0.00000      0.00023      1.90539         0.000005      0.004067      0.000000
      0.00000      7.62123      5.71616        -0.000005     -0.004067      0.000000
      0.00000      3.81096      1.90539        -0.000005      0.004067      0.000000
      0.00000      3.81050      5.71616         0.000005     -0.004067      0.000000
    total drift:                               -0.000000      0.000000      0.000000

  FREE ENERGIE OF THE ION-ELECTRON SYSTEM (eV)
  free  energy   TOTEN  =      -100.37190389 eV

  energy  without entropy=     -100.35316851  energy(sigma->0) =     -100.36253620

 stress matrix after NEB project (eV)
     -0.16484     -0.00000      0.00000
      0.00000      0.39540      0.00000
      0.00000      0.00000      0.42621
  FORCES: max atom, RMS     0.010432    0.005599
  FORCE total and by dimension    0.022398    0.009053
  Stress total and by dimension    0.604290    0.426211

 reached required accuracy - stopping structural energy minimisation
 writing wavefunctions

 total charge

[...]

 magnetization (x)

# of ion       s       p       d       tot
    1        0.005   0.019   0.000   0.024
    2        0.005   0.019   0.000   0.024
    3        0.005   0.019   0.000   0.024
    4        0.005   0.019   0.000   0.024
    5        0.004  -0.004   0.000  -0.000
    6        0.004  -0.004   0.000  -0.000
    7        0.004  -0.004   0.000  -0.000
    8        0.004  -0.004   0.000  -0.000
    9        0.005   0.019   0.000   0.024
   10        0.005   0.019   0.000   0.024
   11        0.005   0.019   0.000   0.024
   12        0.005   0.019   0.000   0.024
   13        0.000  -0.000   0.158   0.158
   14        0.000  -0.000   0.158   0.158
   15        0.000  -0.000   0.158   0.158
   16        0.000  -0.000   0.158   0.158
tot          0.053   0.135   0.632   0.819