 vasp.5.4.4.18Apr17-6-g9f103f2a35 (build Jul 26 2017 05:51:53) complex

 executed on IFC17.0.2.174_CrayMP date 2018.08.24  03:49:09

 INCAR:
 POTCAR:    PAW_PBE O 08Apr2002
 POTCAR:    PAW_PBE Ir 06Sep2000

 POTCAR:    PAW_PBE O 08Apr2002
   VRHFIN =O: s2p4

   TITEL  = PAW_PBE O 08Apr2002
   POMASS =   16.000; ZVAL   =    6.000    mass and valenz
   ENMAX  =  400.000; ENMIN  =  300.000 eV

 POTCAR:    PAW_PBE Ir 06Sep2000
   VRHFIN =Ir: s1d8

   TITEL  = PAW_PBE Ir 06Sep2000
   POMASS =  192.220; ZVAL   =    9.000    mass and valenz
   ENMAX  =  210.864; ENMIN  =  158.148 eV

 Optimization of the real space projectors (new method)

 maximal supplied QI-value         = 24.76
 optimisation between [QCUT,QGAM] = [ 11.39, 22.77] = [ 36.31,145.25] Ry
 Optimized for a Real-space Cutoff    1.00 Angstroem

   l    n(q)    QCUT    max X(q) W(low)/X(q) W(high)/X(q)  e(spline)
   0      7    11.387    20.381    0.39E-03    0.13E-02    0.15E-06
   0      7    11.387    15.268    0.42E-03    0.14E-02    0.17E-06
   1      6    11.387     5.964    0.41E-03    0.11E-02    0.17E-06
   1      6    11.387     5.382    0.39E-03    0.87E-03    0.15E-06
 Optimization of the real space projectors (new method)

 maximal supplied QI-value         = 14.36
 optimisation between [QCUT,QGAM] = [ 11.35, 22.84] = [ 36.05,146.02] Ry
 Optimized for a Real-space Cutoff    1.52 Angstroem

   l    n(q)    QCUT    max X(q) W(low)/X(q) W(high)/X(q)  e(spline)
   2      9    11.346   134.116    0.47E-03    0.13E-03    0.92E-06
   2      9    11.346   130.192    0.47E-03    0.13E-03    0.92E-06
   0     10    11.346    60.310    0.74E-04    0.13E-03    0.69E-06
   0     10    11.346    39.218    0.68E-04    0.12E-03    0.65E-06
   1     10    11.346    18.439    0.15E-03    0.34E-04    0.20E-06
   1     10    11.346    12.760    0.12E-03    0.31E-04    0.16E-06
  PAW_PBE O 08Apr2002                   :
  PAW_PBE Ir 06Sep2000                  :

 POSCAR:  O Ir
  positions in cartesian coordinates
 exchange correlation table for  LEXCH =        8
   RHO(1)=    0.500       N(1)  =     2000
   RHO(2)=  100.500       N(2)  =     4000

 ion  position               nearest neighbor table
   1  0.820  0.820  0.000-  13 1.94  16 1.94
   2  0.180  0.180  0.000-  13 1.94  16 1.94
   3  0.680  0.320  0.500-  15 1.94  14 1.94
   4  0.320  0.680  0.500-  15 1.94  14 1.94
   5  0.212  0.212  0.675-  14 1.91  16 1.92
   6  0.788  0.788  0.675-  14 1.91  16 1.92
   7  0.288  0.712  0.175-  13 1.91  15 1.92
   8  0.712  0.288  0.175-  13 1.91  15 1.92
   9  0.288  0.712  0.825-  16 1.91  14 1.92
  10  0.712  0.288  0.825-  16 1.91  14 1.92
  11  0.212  0.212  0.325-  15 1.91  13 1.92
  12  0.788  0.788  0.325-  15 1.91  13 1.92
  13  0.000  0.000  0.175-   7 1.91   8 1.91  11 1.92  12 1.92   2 1.94   1 1.94  16 3.06
  14  0.500  0.500  0.675-   6 1.91   5 1.91   9 1.92  10 1.92   3 1.94   4 1.94  15 3.06
  15  0.500  0.500  0.325-  12 1.91  11 1.91   7 1.92   8 1.92   3 1.94   4 1.94  14 3.06
  16  0.000  0.000  0.825-   9 1.91  10 1.91   5 1.92   6 1.92   2 1.94   1 1.94  13 3.06

  LATTYP: Found a simple tetragonal cell.
 ALAT       =     4.6963500000
 C/A-ratio  =     1.8574744216

  Lattice vectors:

 A1 = (   4.6963500000,   0.0000000000,   0.0000000000)
 A2 = (   0.0000081967,   4.6963500000,   0.0000000000)
 A3 = (   0.0000000000,   0.0000000000,   8.7233500000)

Analysis of symmetry for initial positions (statically):
 Subroutine PRICEL returns:
 Original cell was already a primitive cell.

 Routine SETGRP: Setting up the symmetry group for a
 simple tetragonal supercell.

 Subroutine GETGRP returns: Found  2 space group operations
 (whereof  2 operations were pure point group operations)
 out of a pool of 16 trial point group operations.

The static configuration has the point symmetry C_1h.

Analysis of symmetry for dynamics (positions and initial velocities):
 Subroutine PRICEL returns:
 Original cell was already a primitive cell.

[...]

The dynamic configuration has the point symmetry C_1h.

Analysis of structural, dynamic, and magnetic symmetry:
 Subroutine PRICEL returns:
 Original cell was already a primitive cell.

 Routine SETGRP: Setting up the symmetry group for a
 simple tetragonal supercell.

 Subroutine GETGRP returns: Found  2 space group operations
 (whereof  2 operations were pure point group operations)
 out of a pool of 16 trial point group operations.

The magnetic configuration has the point symmetry C_1h.

 Subroutine INISYM returns: Found  2 space group operations
 (whereof  2 operations are pure point group operations),
 and found     1 'primitive' translations

 KPOINTS: KPOINTS created by Atomic Simulation Env

Automatic generation of k-mesh.
Space group operators:
 irot       det(A)        alpha          n_x          n_y          n_z        tau_x        tau_y        tau_z
    1     1.000000     0.000000     1.000000     0.000000     0.000000     0.000000     0.000000     0.000000
    2    -1.000000   180.000000     0.707106    -0.707107     0.000000     0.000000     0.000000     0.000000

 Subroutine IBZKPT returns following result:

 Found     24 irreducible k-points:

 Following reciprocal coordinates:
            Coordinates               Weight
  0.000000  0.000000  0.000000      1.000000
  0.250000  0.000000  0.000000      4.000000
  0.500000  0.000000  0.000000      2.000000
  0.250000  0.250000  0.000000      2.000000
  0.500000  0.250000  0.000000      4.000000
 -0.250000  0.250000  0.000000      2.000000
  0.500000  0.500000  0.000000      1.000000
  0.000000  0.000000  0.250000      2.000000
  0.250000  0.000000  0.250000      4.000000
  0.500000  0.000000  0.250000      4.000000
 -0.250000 -0.000000  0.250000      4.000000
  0.250000  0.250000  0.250000      2.000000
  0.500000  0.250000  0.250000      4.000000
 -0.250000  0.250000  0.250000      4.000000
  0.500000  0.500000  0.250000      2.000000
 -0.250000  0.500000  0.250000      4.000000
 -0.250000 -0.250000  0.250000      2.000000
  0.000000  0.000000  0.500000      1.000000
  0.250000  0.000000  0.500000      4.000000
  0.500000  0.000000  0.500000      2.000000
  0.250000  0.250000  0.500000      2.000000
  0.500000  0.250000  0.500000      4.000000
 -0.250000  0.250000  0.500000      2.000000
  0.500000  0.500000  0.500000      1.000000

 Following cartesian coordinates:
            Coordinates               Weight
  0.000000  0.000000  0.000000      1.000000
  0.053233 -0.000000  0.000000      4.000000
  0.106466 -0.000000  0.000000      2.000000
  0.053233  0.053233  0.000000      2.000000
  0.106466  0.053233  0.000000      4.000000
 -0.053233  0.053233  0.000000      2.000000
  0.106466  0.106465  0.000000      1.000000
  0.000000  0.000000  0.028659      2.000000
  0.053233 -0.000000  0.028659      4.000000
  0.106466 -0.000000  0.028659      4.000000
 -0.053233  0.000000  0.028659      4.000000
  0.053233  0.053233  0.028659      2.000000
  0.106466  0.053233  0.028659      4.000000
 -0.053233  0.053233  0.028659      4.000000
  0.106466  0.106465  0.028659      2.000000
 -0.053233  0.106466  0.028659      4.000000
 -0.053233 -0.053233  0.028659      2.000000
  0.000000  0.000000  0.057317      1.000000
  0.053233 -0.000000  0.057317      4.000000
  0.106466 -0.000000  0.057317      2.000000
  0.053233  0.053233  0.057317      2.000000
  0.106466  0.053233  0.057317      4.000000
 -0.053233  0.053233  0.057317      2.000000
  0.106466  0.106465  0.057317      1.000000

 SYSTEM =  unknown system
 POSCAR =   O Ir

 Startparameter for this run:
   NWRITE =      2    write-flag & timer
   PREC   = normal    normal or accurate (medium, high low for compatibility)
   ISTART =      0    job   : 0-new  1-cont  2-samecut
   ICHARG =      2    charge: 1-file 2-atom 10-const
   ISPIN  =      2    spin polarized calculation?
   LNONCOLLINEAR =      F non collinear calculations
   LSORBIT =      F    spin-orbit coupling
   INIWAV =      1    electr: 0-lowe 1-rand  2-diag
   LASPH  =      T    aspherical Exc in radial PAW
   METAGGA=      F    non-selfconsistent MetaGGA calc.

 Electronic Relaxation 1
   ENCUT  =  500.0 eV  36.75 Ry    6.06 a.u.   8.56  8.56 15.90*2*pi/ulx,y,z
   ENINI  =  500.0     initial cutoff
   ENAUG  =  605.4 eV  augmentation charge cutoff
   NELM   =    250;   NELMIN=  2; NELMDL= -5     # of ELM steps
   EDIFF  = 0.1E-04   stopping-criterion for ELM
   LREAL  =      T    real-space projection
   NLSPLINE    = F    spline interpolate recip. space projectors
   LCOMPAT=      F    compatible to vasp.4.4
   GGA_COMPAT  = T    GGA compatible to vasp.4.4-vasp.4.6
   LMAXPAW     = -100 max onsite density
   LMAXMIX     =    6 max onsite mixed and CHGCAR
   VOSKOWN=      0    Vosko Wilk Nusair interpolation
   ROPT   =   -0.00050  -0.00050
 Ionic relaxation
   EDIFFG = -.2E-01   stopping-criterion for IOM
   NSW    =    150    number of steps for IOM
   NBLOCK =      1;   KBLOCK =    150    inner block; outer block
   IBRION =      2    ionic relax: 0-MD 1-quasi-New 2-CG
   NFREE  =      1    steps in history (QN), initial steepest desc. (CG)
   ISIF   =      2    stress and relaxation
   IWAVPR =     11    prediction:  0-non 1-charg 2-wave 3-comb
   ISYM   =      2    0-nonsym 1-usesym 2-fastsym
   LCORR  =      T    Harris-Foulkes like correction to forces

   POTIM  = 0.5000    time-step for ionic-motion
   TEIN   =    0.0    initial temperature
   TEBEG  =    0.0;   TEEND  =   0.0 temperature during run
   SMASS  =  -3.00    Nose mass-parameter (am)
   estimated Nose-frequenzy (Omega)   =  0.10E-29 period in steps =****** mass=  -0.504E-27a.u.
   SCALEE = 1.0000    scale energy and forces
   NPACO  =    256;   APACO  = 16.0  distance and # of slots for P.C.
   PSTRESS=    0.0 pullay stress

  Mass of Ions in am
   POMASS =  16.00192.22
  Ionic Valenz
   ZVAL   =   6.00  9.00
  Atomic Wigner-Seitz radii
  virtual crystal weights
   VCA    =   1.00  1.00
   NELECT =     108.0000    total number of electrons
   NUPDOWN=      -1.0000    fix difference up-down

 DOS related values:
   EMIN   =  10.00;   EMAX   =-10.00  energy-range for DOS
   EFERMI =   0.00
   ISMEAR =     0;   SIGMA  =   0.05  broadening in eV -4-tet -1-fermi 0-gaus

 Electronic relaxation 2 (details)
   IALGO  =     38    algorithm
   LDIAG  =      T    sub-space diagonalisation (order eigenvalues)
   LSUBROT=      F    optimize rotation matrix (better conditioning)
   TURBO    =      0    0=normal 1=particle mesh
   IRESTART =      0    0=no restart 2=restart with 2 vectors
   NREBOOT  =      0    no. of reboots
   NMIN     =      0    reboot dimension
   EREF     =   0.00    reference energy to select bands
   IMIX   =      4    mixing-type and parameters
     AMIX     =   0.05;   BMIX     =  0.00
     AMIX_MAG =   0.05;   BMIX_MAG =  0.00
     AMIN     =   0.05
     WC   =   100.;   INIMIX=   0;  MIXPRE=   1;  MAXMIX= -45

 Intra band minimization:
   WEIMIN = 0.0010     energy-eigenvalue tresh-hold
   EBREAK =  0.35E-07  absolut break condition
   DEPER  =   0.30     relativ break condition

   TIME   =   0.40     timestep for ELM

  volume/ion in A,a.u.               =      12.02        81.15
[...]
   0.353E+02 0.353E+02 -.101E+03   -.411E+02 -.411E+02 0.120E+03   0.567E+01 0.567E+01 -.189E+02   0.227E-01 0.227E-01 0.998E-01
   -.353E+02 -.353E+02 -.101E+03   0.411E+02 0.411E+02 0.120E+03   -.567E+01 -.567E+01 -.189E+02   -.234E-01 -.234E-01 0.997E-01
   0.115E-01 0.115E-01 -.387E+02   -.577E-02 -.577E-02 0.387E+02   -.756E-03 -.756E-03 0.974E-01   -.621E-02 -.621E-02 -.125E+00
   0.129E-01 0.129E-01 -.387E+02   -.119E-01 -.119E-01 0.386E+02   -.437E-03 -.437E-03 0.943E-01   -.116E-02 -.116E-02 -.118E+00
   0.601E-02 0.601E-02 0.387E+02   -.119E-01 -.119E-01 -.387E+02   0.191E-03 0.191E-03 -.962E-01   0.586E-02 0.586E-02 0.118E+00
   0.616E-02 0.616E-02 0.387E+02   -.577E-02 -.577E-02 -.387E+02   -.540E-03 -.540E-03 -.961E-01   -.716E-03 -.716E-03 0.134E+00
   0.112E-01 0.112E-01 -.749E-02   -.329E-13 0.428E-13 -.426E-13   -.858E-02 -.858E-02 -.289E-02   -.365E-02 -.365E-02 0.115E-01

 POSITION                                       TOTAL-FORCE (eV/Angst)
      3.84937      3.84936      0.00000         0.065516      0.065516     -0.000987
      0.84694      0.84694      0.00000        -0.065039     -0.065038     -0.000838
      3.19516      1.50119      4.36167        -0.066687      0.066474      0.001537
      1.50119      3.19516      4.36167         0.066474     -0.066688      0.001537
      0.99746      0.99746      5.89053        -0.035315     -0.035315     -0.071656
      3.69885      3.69885      5.89053         0.036288      0.036288     -0.071282
      1.35072      3.34563      1.52885         0.036925     -0.036975     -0.074157
      3.34564      1.35072      1.52885        -0.036975      0.036925     -0.074157
      1.35072      3.34563      7.19450         0.036016     -0.036014      0.072067
      3.34564      1.35072      7.19450        -0.036014      0.036016      0.072067
      0.99746      0.99746      2.83282        -0.035968     -0.035968      0.074049
      3.69885      3.69885      2.83282         0.037049      0.037049      0.073814
      0.00000      0.00000      1.52955        -0.001166     -0.001166     -0.048146
      2.34818      2.34817      5.89131        -0.000543     -0.000543     -0.053974
      2.34818      2.34817      2.83212         0.000242      0.000242      0.049848
      0.00000      0.00000      7.19380        -0.000802     -0.000802      0.050278
    total drift:                               -0.001012     -0.001012      0.001072

  FREE ENERGIE OF THE ION-ELECTRON SYSTEM (eV)
  free  energy   TOTEN  =      -103.31662837 eV

  energy  without entropy=     -103.30513321  energy(sigma->0) =     -103.31088079

[...]

 d Force = 0.1761467E-02[-0.172E-02, 0.524E-02]  d Energy = 0.2373444E-02-0.612E-03
 d Force = 0.2362030E+00[ 0.201E+00, 0.272E+00]  d Ewald  = 0.2362715E+00-0.685E-04

 Steepest descent step on ions:
 trial-energy change:   -0.002373  1 .order   -0.001761   -0.005243    0.001720
  (g-gl).g = 0.524E-02      g.g   = 0.524E-02  gl.gl    = 0.000E+00
 g(Force)  = 0.524E-02   g(Stress)= 0.000E+00 ortho     = 0.000E+00
 gamma     =   0.00000
 trial     =   1.00000
 opt step  =   0.82807  (harmonic =   0.75299) maximal distance =0.00295814
 next E    =  -103.319147   (d E  =  -0.00252)

[...]

 d Force = 0.1998101E-03[ 0.104E-03, 0.296E-03]  d Energy = 0.2103898E-03-0.106E-04
 d Force =-0.3555466E-01[-0.366E-01,-0.345E-01]  d Ewald  =-0.3555501E-01 0.348E-06

[...]

 d Force = 0.2156772E-04[-0.862E-05, 0.518E-04]  d Energy = 0.3349073E-04-0.119E-04
 d Force =-0.1849068E-01[-0.188E-01,-0.182E-01]  d Ewald  =-0.1849072E-01 0.430E-07

[...]

 d Force = 0.5590695E-03[-0.133E-02, 0.244E-02]  d Energy = 0.5765414E-03-0.175E-04
 d Force = 0.2476590E+01[ 0.248E+01, 0.248E+01]  d Ewald  = 0.2476632E+01-0.425E-04

 Conjugate gradient step on ions:
 trial-energy change:   -0.000577  1 .order   -0.000559   -0.002443    0.001325
  (g-gl).g = 0.243E-02      g.g   = 0.253E-02  gl.gl    = 0.524E-02
 g(Force)  = 0.253E-02   g(Stress)= 0.000E+00 ortho     = 0.101E-03
 gamma     =   0.46325
 trial     =   0.94849
 opt step  =   0.61496  (harmonic =   0.61496) maximal distance =0.00245082
 next E    =  -103.320038   (d E  =  -0.00079)

[...]

 d Force = 0.2354074E-03[ 0.485E-05, 0.466E-03]  d Energy = 0.1540558E-03 0.814E-04
 d Force =-0.8708033E+00[-0.871E+00,-0.871E+00]  d Ewald  =-0.8708146E+00 0.112E-04

 real space projection operators:
  max/ min on nodes  :        384.62        307.62

[...]

 eigenvalue-minimisations  :  7984
 total energy-change (2. order) :-0.1630694E-03  (-0.1773195E-03)
 number of electron     107.9999878 magnetization      -0.0007255
 augmentation part       17.0473845 magnetization      -0.0004456

 Broyden mixing:
  rms(total) = 0.10563E-01    rms(broyden)= 0.10562E-01
  rms(prec ) = 0.11189E-01
  weight for this iteration     100.00

 eigenvalues of (default mixing * dielectric matrix)
  average eigenvalue GAMMA=   0.4017
  0.4017

[...]

--------------------------------------- Iteration      7(   3)  ---------------------------------------

 eigenvalue-minimisations  :  5344
 total energy-change (2. order) : 0.4418296E-05  (-0.1899626E-05)
 number of electron     107.9999878 magnetization      -0.0007255
 augmentation part       17.0473845 magnetization      -0.0004456

 Free energy of the ion-electron system (eV)
  alpha Z        PSCENC =       440.46436163
  Ewald energy   TEWEN  =     -5922.07763346
  -Hartree energ DENC   =     -1947.26299768
  -exchange      EXHF   =         0.00000000
  -V(xc)+E(xc)   XCENC  =       270.03769425
  PAW double counting   =      9711.34776490    -9591.50083030
  entropy T*S    EENTRO =        -0.01217491
  eigenvalues    EBANDS =      -493.31959035
  atomic energy  EATOM  =      7429.00326683
  Solvation  Ediel_sol  =         0.00000000
  free energy    TOTEN  =      -103.32013910 eV

  energy without entropy =     -103.30796418  energy(sigma->0) =     -103.31405164

 average (electrostatic) potential at core
  the test charge radii are     0.7215  1.2793
  (the norm of the test charge is              1.0000)
       1 -72.8231       2 -72.8233       3 -72.8230       4 -72.8230       5 -72.9581
       6 -72.9582       7 -72.9578       8 -72.9578       9 -72.9582      10 -72.9582
      11 -72.9579      12 -72.9579      13 -57.9436      14 -57.9441      15 -57.9435
      16 -57.9441

 E-fermi :   2.7908     XC(G=0): -10.6474     alpha+bet : -9.2886

[...]

 spin component 2

[...]

 k-point    24 :       0.5000    0.5000    0.5000
  band No.  band energies     occupation
      1     -16.4746      1.00000
      2     -16.4745      1.00000
      3     -16.0847      1.00000
      4     -16.0847      1.00000
      5     -15.6470      1.00000
      6     -15.6469      1.00000
      7     -15.5099      1.00000
      8     -15.5098      1.00000
      9     -15.4676      1.00000
     10     -15.4675      1.00000
     11     -15.0341      1.00000
     12     -15.0340      1.00000
     13      -5.4142      1.00000
     14      -5.4142      1.00000
     15      -5.0397      1.00000
     16      -5.0397      1.00000
     17      -4.8762      1.00000
     18      -4.8761      1.00000
     19      -3.8884      1.00000
     20      -3.8883      1.00000
     21      -3.5901      1.00000
     22      -3.5901      1.00000
     23      -3.4607      1.00000
     24      -3.4607      1.00000
     25      -2.9236      1.00000
     26      -2.9235      1.00000
     27      -2.6294      1.00000
     28      -2.6293      1.00000
     29      -2.1718      1.00000
     30      -2.1717      1.00000
     31      -2.1616      1.00000
     32      -2.1615      1.00000
     33      -1.0799      1.00000
     34      -1.0798      1.00000
     35      -0.5452      1.00000
     36      -0.5451      1.00000
     37      -0.5445      1.00000
     38      -0.5444      1.00000
     39      -0.3751      1.00000
     40      -0.3750      1.00000
     41       0.3670      1.00000
     42       0.3670      1.00000
     43       0.8465      1.00000
     44       0.8465      1.00000
     45       1.0890      1.00000
     46       1.0890      1.00000
     47       1.1608      1.00000
     48       1.1608      1.00000
     49       1.5812      1.00000
     50       1.5813      1.00000
     51       2.2728      1.00000
     52       2.2728      1.00000
     53       2.7609      0.80136
     54       2.7609      0.80105
     55       2.8433      0.06868
     56       2.8434      0.06844
     57       3.0832      0.00000
     58       3.0832      0.00000
     59       3.4989      0.00000
     60       3.4990      0.00000
     61       6.2568      0.00000
     62       6.2568      0.00000
     63       6.2751      0.00000
     64       6.2751      0.00000
     65       6.8724      0.00000
     66       6.8724      0.00000
     67       7.3873      0.00000
     68       7.3873      0.00000
     69      13.5787      0.00000
     70      13.5787      0.00000
     71      13.6730      0.00000
     72      13.6730      0.00000

[...]

 soft charge-density along one line, spin component           2
         0         1         2         3         4         5         6         7         8         9
 total charge-density along one line

------------------------ aborting loop because EDIFF is reached ----------------------------------------

 DIPCOR: dipole corrections for dipol
 direction  3 min pos     1,
 dipolmoment           0.000000      0.000000      0.000396 electrons x Angstroem
 Tr[quadrupol]      -523.605589

 energy correction for charged system         0.000000 eV
 dipol+quadrupol energy correction            0.000000 eV
 added-field ion interaction          0.000000 eV  (added to PSCEN)

  *************** adding dipol energy to TOTEN NOW ****************

[...]

  FORCE on cell =-STRESS in cart. coord.  units (eV):
  Direction    XX          YY          ZZ          XY          YZ          ZX
  Alpha Z   440.46436   440.46436   440.46436
  Ewald   -2049.49784 -2049.49784 -1823.09644     0.00315     0.00205     0.00205
  Hartree   626.09952   626.09952   694.72831    -0.00059     0.00095     0.00095
  E(xc)    -520.25593  -520.25593  -520.61122     0.00010     0.00001     0.00001
  Local    -473.36029  -473.36029  -754.04371     0.00011    -0.00276    -0.00276
  n-local  -277.50785  -274.66431  -272.17795     0.00003     0.02317    -0.02405
  augment   228.08660   228.08660   229.45964    -0.00032     0.00002     0.00002
  Kinetic  2024.06072  2023.75927  2005.03716    -0.00153    -0.11399     0.11393
  Fock        0.00000     0.00000     0.00000     0.00000     0.00000     0.00000
  Total      -0.63964    -0.63964    -0.23985     0.00096     0.00013     0.00013
  in kB      -5.32654    -5.32654    -1.99733     0.00797     0.00110     0.00110

 VOLUME and BASIS-vectors are now :
  energy-cutoff  :      500.00
  volume of cell :      192.40
      direct lattice vectors                 reciprocal lattice vectors
     4.696350000  0.000000000  0.000000000     0.212931319 -0.000000372  0.000000000
     0.000008197  4.696350000  0.000000000     0.000000000  0.212931319  0.000000000
     0.000000000  0.000000000  8.723350000     0.000000000  0.000000000  0.114634859

  length of vectors
     4.696350000  4.696350000  8.723350000     0.212931319  0.212931319  0.114634859

 FORCES acting on ions
    electron-ion (+dipol)            ewald-force                    non-local-force                 convergence-correction
   0.132E+03 0.132E+03 -.169E-01   -.153E+03 -.153E+03 0.188E-01   0.208E+02 0.208E+02 -.844E-03   -.122E-01 -.122E-01 -.849E-03
   -.133E+03 -.133E+03 -.137E-01   0.153E+03 0.153E+03 0.142E-01   -.208E+02 -.208E+02 -.411E-03   0.122E-01 0.122E-01 -.151E-03
   -.132E+03 0.132E+03 0.145E-01   0.153E+03 -.153E+03 -.154E-01   -.208E+02 0.208E+02 0.320E-03   0.122E-01 -.121E-01 0.717E-03
   0.132E+03 -.132E+03 0.145E-01   -.153E+03 0.153E+03 -.154E-01   0.208E+02 -.208E+02 0.320E-03   -.121E-01 0.122E-01 0.717E-03
   0.352E+02 0.352E+02 0.101E+03   -.409E+02 -.409E+02 -.120E+03   0.569E+01 0.569E+01 0.191E+02   0.228E-02 0.228E-02 0.526E-01
   -.352E+02 -.352E+02 0.101E+03   0.409E+02 0.409E+02 -.120E+03   -.569E+01 -.569E+01 0.191E+02   -.214E-02 -.214E-02 0.527E-01
   -.352E+02 0.352E+02 0.101E+03   0.409E+02 -.409E+02 -.120E+03   -.569E+01 0.569E+01 0.191E+02   -.223E-02 0.238E-02 0.527E-01
   0.352E+02 -.352E+02 0.101E+03   -.409E+02 0.409E+02 -.120E+03   0.569E+01 -.569E+01 0.191E+02   0.238E-02 -.223E-02 0.527E-01
   -.352E+02 0.352E+02 -.101E+03   0.409E+02 -.409E+02 0.120E+03   -.569E+01 0.569E+01 -.191E+02   -.140E-02 0.190E-02 -.535E-01
   0.352E+02 -.352E+02 -.101E+03   -.409E+02 0.409E+02 0.120E+03   0.569E+01 -.569E+01 -.191E+02   0.190E-02 -.140E-02 -.535E-01
   0.352E+02 0.352E+02 -.101E+03   -.409E+02 -.409E+02 0.120E+03   0.569E+01 0.569E+01 -.191E+02   0.300E-02 0.300E-02 -.518E-01
   -.352E+02 -.352E+02 -.101E+03   0.409E+02 0.409E+02 0.120E+03   -.569E+01 -.569E+01 -.191E+02   -.265E-02 -.265E-02 -.515E-01
   0.321E-02 0.321E-02 -.409E+02   -.422E-02 -.422E-02 0.408E+02   -.333E-03 -.333E-03 0.935E-01   0.958E-03 0.958E-03 0.151E-01
   0.498E-02 0.498E-02 -.409E+02   -.553E-02 -.553E-02 0.408E+02   -.226E-03 -.226E-03 0.932E-01   0.619E-03 0.619E-03 0.161E-01
   0.138E-02 0.138E-02 0.409E+02   -.103E-02 -.103E-02 -.408E+02   -.270E-04 -.270E-04 -.939E-01   -.302E-03 -.302E-03 -.118E-01
   0.169E-02 0.169E-02 0.409E+02   -.199E-02 -.199E-02 -.408E+02   -.204E-03 -.204E-03 -.935E-01   0.234E-03 0.234E-03 -.170E-01
   0.735E-03 0.735E-03 -.242E-02   -.214E-13 0.419E-14 0.284E-13   -.435E-02 -.435E-02 -.548E-03   0.279E-02 0.279E-02 0.340E-02

 POSITION                                       TOTAL-FORCE (eV/Angst)
      3.85247      3.85246     -0.00001        -0.011509     -0.011509      0.000103
      0.84384      0.84384     -0.00000         0.011790      0.011790     -0.000053
      3.19204      1.50431      4.36169         0.011720     -0.011777      0.000156
      1.50431      3.19203      4.36169        -0.011777      0.011720      0.000156
      0.99517      0.99517      5.88477        -0.003758     -0.003758     -0.000562
      3.70116      3.70115      5.88477         0.004045      0.004045     -0.000458
      1.35302      3.34333      1.52296         0.003902     -0.003908      0.000349
      3.34333      1.35302      1.52296        -0.003908      0.003902      0.000349
      1.35299      3.34336      7.20028         0.003822     -0.003907      0.000602
      3.34336      1.35299      7.20028        -0.003907      0.003822      0.000602
      0.99515      0.99515      2.83869        -0.003764     -0.003764     -0.000168
      3.70119      3.70119      2.83870         0.003938      0.003938     -0.000293
     -0.00000     -0.00000      1.52994        -0.000340     -0.000340      0.003402
      2.34817      2.34817      5.89164        -0.000104     -0.000104      0.002880
      2.34817      2.34817      2.83176         0.000077      0.000077     -0.003952
     -0.00001     -0.00001      7.19341        -0.000226     -0.000226     -0.003112
    total drift:                               -0.000828     -0.000828      0.000433

  FREE ENERGIE OF THE ION-ELECTRON SYSTEM (eV)
  free  energy   TOTEN  =      -103.32013902 eV

  energy  without entropy=     -103.30796411  energy(sigma->0) =     -103.31405157

 d Force = 0.1304313E-03[ 0.237E-04, 0.237E-03]  d Energy = 0.1627293E-03-0.323E-04
 d Force = 0.1566408E+01[ 0.157E+01, 0.157E+01]  d Ewald  = 0.1566409E+01-0.123E-05

 Conjugate gradient step on ions:
 trial-energy change:   -0.000163  1 .order   -0.000130   -0.000237   -0.000024
  (g-gl).g = 0.503E-03      g.g   = 0.272E-03  gl.gl    = 0.253E-02
 g(Force)  = 0.272E-03   g(Stress)= 0.000E+00 ortho     =-0.145E-04
 gamma     =   0.19886
 trial     =   0.88179
 opt step  =   0.97982  (harmonic =   0.97982) maximal distance =0.00150513
 next E    =  -103.320108   (d E  =  -0.00013)

 reached required accuracy - stopping structural energy minimisation
 writing wavefunctions

 total charge

[...]

 magnetization (x)

# of ion       s       p       d       tot
    1       -0.000  -0.000   0.000  -0.000
    2       -0.000  -0.000   0.000  -0.000
    3       -0.000  -0.000   0.000  -0.000
    4       -0.000  -0.000   0.000  -0.000
    5        0.000   0.000   0.000   0.000
    6        0.000   0.000   0.000   0.000
    7        0.000   0.000   0.000   0.000
    8        0.000   0.000   0.000   0.000
    9        0.000   0.000   0.000   0.000
   10        0.000   0.000   0.000   0.000
   11        0.000   0.000   0.000   0.000
   12        0.000   0.000   0.000   0.000
   13       -0.000  -0.000  -0.000  -0.000
   14       -0.000  -0.000  -0.000  -0.000
   15       -0.000  -0.000  -0.000  -0.000
   16       -0.000  -0.000  -0.000  -0.000
tot          0.000  -0.000  -0.000  -0.000